%chk=083-PCM.chk
%nproc=8
%mem=30GB
#P UB3LYP/6-311++G(d,p) SCRF=(PCM,Solvent=n,n-DiMethylFormamide)

Quinone PCM in DMF 

0 1
C                  1.5214750000      0.8168820000     -0.8333930000
C                  0.2567800000      1.5523290000     -0.6003110000
C                 -0.8049510000      0.9511870000     -0.0586910000
C                 -0.7730070000     -0.4920730000      0.3043500000
C                  0.4600060000     -1.2656620000      0.0400320000
C                  1.5347500000     -0.6513610000     -0.5251910000
O                  2.5130980000      1.4035570000     -1.2357620000
O                 -1.7669170000     -1.0094620000      0.7960800000
C                  0.4813310000     -2.7168150000      0.4191700000
O                  2.6560830000     -1.3795110000     -0.6957530000
C                  3.6344570000     -1.0832830000     -1.7136880000
H                  0.2722520000      2.6012710000     -0.8737460000
H                 -1.7371980000      1.4669070000      0.1419800000
H                  1.0005690000     -2.8607500000      1.3732460000
H                  1.0166190000     -3.3052330000     -0.3275760000
H                 -0.5355980000     -3.0899160000      0.5336870000
H                  4.1865990000     -2.0136080000     -1.8412590000
H                  4.2995590000     -0.2833590000     -1.3963220000
H                  3.1528030000     -0.8077920000     -2.6532440000





