%chk=262.chk
%nproc=8
%mem=30GB
#P UB3LYP/6-311++G(d,p) nosym opt freq

Oxidized

0 1
C     3.7886595392   -1.3621235110    0.1905287594
C     2.6062712484   -0.5733815520   -0.1658916622
O     2.3283930949   -0.3626760317   -1.3640683535
O     1.7309060652   -0.0168968784    0.7772026187
C     0.6278427554    0.7196157225    0.4142023366
C     0.6899463175    2.0804832569    0.2451764918
C    -0.4115174467    2.8116755992   -0.1167188639
C    -1.6253977356    2.1442122727   -0.3165054974
C    -1.7172043707    0.7655649794   -0.1521726064
C    -2.9952568165    0.1070928285   -0.3684989281
O    -4.0001001352    0.7719735183   -0.6983580911
C    -3.0638781370   -1.3302795326   -0.1906928724
C    -1.9799543472   -2.0187977407    0.1612502443
C    -0.7071647552   -1.3917099222    0.3805581018
O     0.3228671825   -2.0407357408    0.7142880889
C    -0.5832630360    0.0450675127    0.2160370478
H     4.2978498822   -0.8495883491    1.0376224606
H     4.5005457518   -1.3395680135   -0.6531327456
H     3.5548789073   -2.4213857163    0.4168082812
H     1.6306198818    2.5634744958    0.4046193989
H    -0.3734034452    3.8764165765   -0.2514637853
H    -2.4946978251    2.7285448775   -0.6031107570
H    -4.0135024000   -1.8210416405   -0.3512200875
H    -2.1134401756   -3.0859370111    0.2735404202


