$molecule
-2 1
C                 -4.1102810000      3.6387890000      1.5167450000
C                 -4.5980500000      3.8713550000      0.2513880000
C                 -3.9968500000      3.2207730000     -0.8490910000
C                 -2.9310560000      2.3469420000     -0.6608500000
C                 -2.3768640000      2.0879400000      0.6288690000
C                 -3.0199700000      2.7641160000      1.7450630000
C                 -2.5919540000      2.5794190000      3.1292530000
C                 -1.5027590000      1.6837470000      3.2854770000
C                 -0.9012130000      1.0494370000      2.1992430000
C                 -1.2220610000      1.1828570000      0.8150000000
O                 -3.1658640000      3.1738050000      4.1200340000
O                 -0.5960500000      0.6062680000     -0.1274830000
H                 -4.5332570000      4.1134980000      2.3955700000
H                 -4.3568230000      3.4039010000     -1.8627790000
O                 -2.4073980000      1.7251270000     -1.7810010000
Br                 0.6181970000     -0.1472500000      2.6123510000
H                 -5.4340010000      4.5486820000      0.0870560000
H                 -1.1472430000      1.4977860000      4.2931570000
H                 -3.0083730000      1.9408700000     -2.5042020000
$end

$rem
   BASIS  =  6-311++G(d,p)
   GUI  =  2
   JOB_TYPE  =  SP
   METHOD  =  B3LYP
   SCF_CONVERGENCE  = 8
   SOLVENT_METHOD = sm12
$end

$smx
   solvent dimethylformamide
   charges CM5
$end





