$molecule
-2 1
C                 -3.2088750000      0.0610090000      1.0001430000
C                 -1.8494720000     -0.0023480000      0.3509870000
C                 -1.7402990000     -0.2202620000     -1.0426970000
C                 -0.5246690000     -0.2966680000     -1.7672740000
O                 -0.4475560000     -0.4995870000     -3.0469570000
C                  0.6568390000     -0.1277930000     -0.9272350000
C                  1.9456380000     -0.1812310000     -1.5067340000
C                  3.1030120000     -0.0272840000     -0.7625360000
C                  3.0068540000      0.1943470000      0.6384200000
C                  1.7607460000      0.2514360000      1.2367800000
C                  0.5577230000      0.0963190000      0.5046690000
C                 -0.7186430000      0.1668500000      1.1959740000
O                 -0.8158870000      0.3708830000      2.4780580000
H                 -4.0032350000     -0.1830790000      0.2824380000
H                 -3.2724750000     -0.6289460000      1.8538050000
H                 -3.4162180000      1.0589460000      1.4199890000
H                 -2.6563900000     -0.3444110000     -1.6246050000
H                  1.9808130000     -0.3512810000     -2.5796780000
H                  4.0792200000     -0.0744810000     -1.2448960000
H                  3.9099020000      0.3182080000      1.2363120000
H                  1.6529700000      0.4193740000      2.3050400000
$end
$rem
   MAX_SCF_CYCLES=200
   BASIS  =  6-311++G(d,p)
   GUI  =  2
   JOB_TYPE  =  SP
   METHOD  =  B3LYP
   SOLVENT_METHOD = COSMO
$end
$solvent
   dielectric 37.219
   opticaldielectric 1.43
$end





