%chk=314-PCM.chk
%nproc=8
%mem=30GB
#P UB3LYP/6-311++G(d,p) SCRF=(PCM,Solvent=n,n-DiMethylFormamide)

Quinone PCM in DMF 

0 1
C                 -4.8975970000     -0.7835000000     -2.6861910000
C                 -4.3003630000     -1.9165300000     -3.2286170000
C                 -2.9874400000     -2.2503100000     -2.8862720000
C                 -4.1852430000      0.0192610000     -1.7916710000
C                 -2.8684160000     -0.3145060000     -1.4505770000
C                 -2.2702750000     -1.4496110000     -2.0034680000
C                 -4.8309010000      1.2255610000     -1.2045630000
C                 -4.0862390000      2.0109290000     -0.1717630000
C                 -2.8165950000      1.6618980000      0.1737930000
C                 -2.0825470000      0.5527190000     -0.5267870000
O                 -5.9612520000      1.5552410000     -1.5309760000
O                 -0.8889420000      0.3815770000     -0.3704750000
H                 -5.9120290000     -0.5033130000     -2.9414100000
H                 -4.8548830000     -2.5405440000     -3.9202270000
H                 -2.5243810000     -3.1332580000     -3.3119100000
H                 -1.2485950000     -1.6844920000     -1.7321310000
C                 -4.8296190000      3.1712500000      0.4210430000
S                 -1.8969090000      2.6592260000      1.3257100000
C                 -1.0553070000      1.4483560000      2.3561560000
C                 -1.7649000000      0.5094870000      3.0690680000
C                 -1.0976200000     -0.4016920000      3.9276400000
C                  0.3227740000     -0.3091900000      4.0695350000
C                  1.0174350000      0.6869220000      3.3342110000
C                  0.3519190000      1.5412280000      2.4914940000
C                 -1.7984000000     -1.3928330000      4.6648190000
C                 -1.1265370000     -2.2540690000      5.4988350000
C                  0.2790200000     -2.1649160000      5.6363730000
C                  0.9853630000     -1.2142220000      4.9384440000
H                 -4.6503430000      4.0810280000     -0.1633130000
H                 -4.4971640000      3.3675190000      1.4410660000
H                 -5.9026800000      2.9848090000      0.3952740000
H                 -2.8447970000      0.4566130000      2.9849180000
H                  2.0956000000      0.7561110000      3.4338950000
H                  0.8934840000      2.2767580000      1.9099050000
H                 -2.8761890000     -1.4601640000      4.5591370000
H                 -1.6724050000     -3.0071880000      6.0558530000
H                  0.7969820000     -2.8507920000      6.2971650000
H                  2.0630020000     -1.1442060000      5.0436500000





