$molecule
-4 1
O                 -6.0500460000      0.3344170000     -1.2397150000
S                 -5.4038040000      0.5893170000      0.0940100000
O                 -5.3015790000      2.0472590000      0.4115250000
O                 -6.0850520000     -0.1893260000      1.1848940000
C                 -3.7049180000     -0.0628450000     -0.0255820000
C                 -3.5378930000     -1.4407570000     -0.3480980000
C                 -2.2700360000     -1.9588390000     -0.4883900000
C                 -1.0951750000     -1.1731180000     -0.3155480000
C                  0.2045830000     -1.7801520000     -0.5135880000
O                  0.3463020000     -3.0092400000     -0.8827180000
C                  1.3337060000     -0.9169530000     -0.2359670000
C                  2.6551630000     -1.4395170000     -0.3266920000
C                  3.7754460000     -0.6695070000     -0.1084980000
C                  3.6303930000      0.7108710000      0.2140470000
C                  2.3642660000      1.2496920000      0.3385820000
C                  1.1865080000      0.4730510000      0.1386370000
C                 -0.1254930000      1.0970190000      0.2985640000
O                 -0.2654090000      2.3265400000      0.6106320000
C                 -1.2654870000      0.2144040000      0.0585530000
C                 -2.5896290000      0.7270620000      0.1770930000
S                  5.1446670000      1.7025600000      0.4365800000
O                  5.9107500000      1.6012920000     -0.8534700000
O                  4.7204590000      3.1038320000      0.7420660000
O                  5.9052750000      1.0730230000      1.5703980000
H                 -4.4122660000     -2.0723680000     -0.4781790000
H                 -2.1239100000     -3.0082840000     -0.7326080000
H                  2.7470640000     -2.4948250000     -0.5721010000
H                  4.7687450000     -1.1043860000     -0.1768320000
H                  2.2383600000      2.2954890000      0.5914960000
H                 -2.7009900000      1.7742870000      0.4309100000
$end

$rem
   Scf_algorithm RCA_DIIS
   BASIS  =  6-311++G(d,p)
   GUI  =  2
   JOB_TYPE  =  SP
   METHOD  =  B3LYP
   SCF_CONVERGENCE  = 8
   SOLVENT_METHOD = sm12
$end

$smx
   solvent dimethylformamide
   charges CM5
$end





