%chk=008-an.chk
%nproc=8
%mem=30GB
#P UB3LYP/6-311++G(d,p) nosym opt freq

Reduced

-2 1
C                 -1.2954710000      2.1049270000      0.5864480000
C                 -2.4965310000      1.4063430000      0.2286040000
C                 -2.6246850000      0.1274750000     -0.3090710000
C                 -1.4829040000     -0.6947020000     -0.5852750000
C                 -0.2461600000     -0.0538830000     -0.2498650000
C                 -0.1942360000      1.2306760000      0.2858350000
O                 -1.5619940000     -1.8891130000     -1.0854920000
H                 -3.6065920000     -0.2758510000     -0.5320500000
O                 -1.2115220000      3.2833500000      1.0794100000
Cl                 1.4594860000      1.8894220000      0.6520820000
Br                -4.1837130000      2.4052860000      0.5472250000
H                  0.6746330000     -0.6015600000     -0.4251820000


