$molecule
-2 1
C                  4.8442370000     -2.8655350000     -0.3520580000
C                  5.5803240000     -1.9750800000     -1.1008990000
C                  4.9917370000     -0.7469320000     -1.5200780000
C                  3.4969770000     -2.5991900000      0.0212990000
C                  2.8985410000     -1.3540140000     -0.4015160000
C                  3.6888670000     -0.4606580000     -1.1688120000
C                  2.7661050000     -3.5339430000      0.8057930000
C                  1.4200180000     -3.1973520000      1.1370560000
C                  0.7931760000     -1.9663430000      0.6923220000
C                  1.5415210000     -0.9890190000     -0.0665040000
C                  0.6798940000     -4.1193020000      1.9730200000
C                 -0.6116970000     -3.8248330000      2.3555570000
C                 -0.5935520000     -1.7122910000      1.0555470000
C                 -1.2081120000     -2.6298350000      1.8772650000
O                  3.3144840000     -4.6695800000      1.2229300000
O                  1.0654010000      0.1633020000     -0.4346970000
O                  1.2780590000     -5.2586020000      2.3828080000
Br                -3.0685550000     -2.3063120000      2.4370020000
N                 -1.2519110000     -0.5964840000      0.5196450000
H                  5.2676900000     -3.8066850000     -0.0168300000
H                  6.6088270000     -2.2066180000     -1.3726280000
H                  5.5687040000     -0.0404910000     -2.1139580000
H                  3.2128080000      0.4668660000     -1.4698050000
H                 -1.1532580000     -4.5060330000      2.9988850000
H                  2.2598070000     -5.1817640000      1.9396270000
H                 -0.5450100000      0.0461540000      0.1210230000
H                 -1.9264100000     -0.1833970000      1.1494250000
$end
$rem
   MAX_SCF_CYCLES=200
   BASIS  =  6-311++G(d,p)
   GUI  =  2
   JOB_TYPE  =  SP
   METHOD  =  B3LYP
   SOLVENT_METHOD = PCM
$end
$pcm
   theory = CPCM
$end
$solvent
   dielectric 37.219
   opticaldielectric 1.43
$end






