$molecule
-1 2
C                 -1.6749410000      0.8164670000      1.6355490000
C                 -2.8573130000      1.1188710000      0.8066850000
C                 -2.8061420000      1.0077620000     -0.5666230000
C                 -1.6353210000      0.6320280000     -1.3004610000
C                 -0.4527760000      0.3298840000     -0.4715910000
C                 -0.5039970000      0.4410010000      0.9017380000
O                 -1.5401020000      0.5588910000     -2.5537960000
O                 -1.7701690000      0.8890950000      2.8889030000
Br                 1.0869550000      0.0641780000      1.9371720000
Br                -4.3971120000      1.3841090000     -1.6021220000
N                  0.6491130000     -0.0888010000     -1.1907460000
N                 -3.9595300000      1.5383170000      1.5258500000
H                  0.5492530000      0.1169040000     -2.1783310000
H                  1.5527680000      0.0740250000     -0.7734190000
H                 -3.8590830000      1.3310920000      2.5132220000
H                 -4.8628720000      1.3704670000      1.1095940000
$end

$rem
   BASIS  =  6-311++G(d,p)
   GUI  =  2
   JOB_TYPE  =  SP
   METHOD  =  B3LYP
   SCF_CONVERGENCE  = 8
   SOLVENT_METHOD = sm12
$end

$smx
   solvent dimethylformamide
   charges CM5
$end





