%chk=349-an.chk
%nproc=8
%mem=30GB
#P UB3LYP/6-311++G(d,p) nosym opt freq

Reduced

-2 1
C                 -3.6299360000      0.1992280000      0.8407020000
C                 -3.6585520000     -0.1736490000     -0.4977660000
C                 -2.4414620000     -0.3646650000     -1.1931290000
C                 -1.1808610000     -0.1915480000     -0.5814160000
N                 -0.0298940000     -0.3860980000     -1.2887150000
C                  1.1512380000     -0.1996120000     -0.6286890000
C                  2.3836170000     -0.3815610000     -1.2916780000
C                  3.6300360000     -0.1992740000     -0.6470030000
C                  3.6584170000      0.1736740000      0.6915320000
C                  2.4414410000      0.3646680000      1.3868130000
C                  1.1808310000      0.1915210000      0.7750850000
N                  0.0298660000      0.3860930000      1.4824630000
C                 -1.1512450000      0.1996040000      0.8224340000
C                 -2.3836770000      0.3815510000      1.4855060000
H                 -4.5557910000      0.3516580000      1.3950280000
H                 -4.6070810000     -0.3196140000     -1.0141010000
H                 -2.4434900000     -0.6569870000     -2.2420920000
H                  2.3413530000     -0.6737240000     -2.3397650000
H                  4.5559330000     -0.3516240000     -1.2010990000
H                  4.6069370000      0.3196580000      1.2079950000
H                  2.4435360000      0.6570050000      2.4357870000
H                 -2.3412140000      0.6736960000      2.5335620000


