$molecule
0 1
C                 -1.4501230000     -2.6074110000      0.9637230000
C                 -2.2887670000     -2.1473870000     -0.2019070000
C                 -1.9865880000     -0.9651080000     -0.7834070000
C                 -0.8719370000     -0.1041010000     -0.3438820000
C                 -0.0680470000     -0.5635220000      0.8146380000
C                 -0.3467790000     -1.7233570000      1.4198200000
O                 -1.6410820000     -3.6745180000      1.5201260000
O                 -0.6242220000      0.9531760000     -0.9052570000
C                 -3.3930650000     -3.0013170000     -0.6906320000
C                 -4.2643220000     -3.6572560000      0.1935080000
C                 -3.6051770000     -3.1422450000     -2.0715010000
C                 -4.6620380000     -3.9058850000     -2.5557700000
C                 -5.3270390000     -4.4111150000     -0.2945350000
C                 -5.5295490000     -4.5399520000     -1.6676970000
H                 -2.5714890000     -0.5740730000     -1.6085340000
H                  0.7405460000      0.0867380000      1.1297250000
H                  0.2185400000     -2.0941750000      2.2677340000
H                 -4.1142590000     -3.5717570000      1.2607270000
H                 -2.9215640000     -2.6702370000     -2.7679430000
H                 -4.8030330000     -4.0119920000     -3.6253530000
H                 -5.9972290000     -4.9025450000      0.4015030000
H                 -6.3536970000     -5.1357000000     -2.0433660000
$end
$rem
   MAX_SCF_CYCLES=200
   BASIS  =  6-311++G(d,p)
   GUI  =  2
   JOB_TYPE  =  SP
   METHOD  =  B3LYP
   SOLVENT_METHOD = COSMO
$end
$solvent
   dielectric 37.219
   opticaldielectric 1.43
$end





