$molecule
-1 1
C                 -3.4922130000      2.4023360000      1.1174340000
C                 -4.2239260000      2.2805180000      2.2864620000
C                 -3.8238750000      1.3453960000      3.2449080000
C                 -2.3615490000      1.6025730000      0.8865000000
C                 -1.9509940000      0.6610180000      1.8404930000
C                 -2.7063050000      0.5522640000      3.0202910000
C                 -1.6275000000      1.7975810000     -0.4024770000
C                 -0.4359580000      0.9573880000     -0.6400590000
C                 -0.0116220000      0.0066630000      0.3062810000
C                 -0.7281890000     -0.2361780000      1.6389580000
C                  0.2693290000      1.1322660000     -1.8472480000
C                  1.3912790000      0.3740760000     -2.1264260000
C                  1.8180330000     -0.5753040000     -1.1939200000
C                  1.1270250000     -0.7516830000     -0.0033340000
O                 -2.0209670000      2.6290620000     -1.2103180000
S                  2.3634780000      0.6197400000     -3.6599900000
O                  1.4362390000      1.3210380000     -4.5782910000
O                  3.5213080000      1.4327310000     -3.2085060000
O                  2.7214450000     -0.7631440000     -4.0674740000
C                  0.2727210000      0.0319340000      2.7978770000
C                 -1.1949170000     -1.7181820000      1.6916970000
H                 -3.7657870000      3.1137700000      0.3476920000
H                 -5.0959600000      2.9025700000      2.4566580000
H                 -4.3841500000      1.2350670000      4.1676980000
H                 -2.4182350000     -0.1648330000      3.7800190000
H                 -0.0815810000      1.8625450000     -2.5652390000
H                  2.6876620000     -1.1800140000     -1.4237510000
H                  1.4862010000     -1.5003070000      0.6943050000
H                  0.6080760000      1.0714720000      2.7802180000
H                  1.1524390000     -0.6073020000      2.7050670000
H                 -0.1855640000     -0.1642660000      3.7704040000
H                 -0.3469860000     -2.3954790000      1.5757300000
H                 -1.9038450000     -1.9243830000      0.8864770000
H                 -1.6811530000     -1.9464930000      2.6434310000
$end
$rem
   MAX_SCF_CYCLES=200
   BASIS  =  6-311++G(d,p)
   GUI  =  2
   JOB_TYPE  =  SP
   METHOD  =  B3LYP
   SOLVENT_METHOD = COSMO
$end
$solvent
   dielectric 37.219
   opticaldielectric 1.43
$end





