$molecule
0 1
C                  5.9533810000     -5.1550410000      1.1116990000
C                  6.8898280000     -4.9632390000      0.0984110000
C                  6.6805030000     -3.9909400000     -0.8819780000
C                  4.7994170000     -4.3740470000      1.1508580000
C                  4.5901620000     -3.3991740000      0.1673340000
C                  5.5317560000     -3.2082840000     -0.8491570000
C                  3.8018690000     -4.5951050000      2.2501770000
C                  2.6030410000     -3.7548840000      2.2560720000
C                  2.3542120000     -2.7867810000      1.3139020000
C                  3.3723190000     -2.5680520000      0.2004460000
O                  4.0067710000     -5.4517320000      3.0971140000
O                  3.1463520000     -1.7065540000     -0.6339710000
H                  6.0970270000     -5.9033440000      1.8808770000
H                  7.7858480000     -5.5730900000      0.0720510000
H                  5.3468520000     -2.4481030000     -1.5978180000
Cl                 1.4999070000     -4.0895220000      3.5786150000
H                  7.4120790000     -3.8455080000     -1.6683250000
N                  1.3153520000     -1.9407690000      1.1791720000
C                  0.1019990000     -1.7564220000      1.9770210000
C                 -0.7492520000     -0.6434040000      1.3655670000
C                 -2.0363590000     -0.4014020000      2.1575270000
H                  1.4252970000     -1.3374800000      0.3701270000
H                  0.3662290000     -1.5012670000      3.0061970000
H                 -0.4690780000     -2.6874680000      2.0098830000
H                 -0.9958490000     -0.9062750000      0.3303730000
H                 -0.1600640000      0.2801070000      1.3263180000
H                 -2.6586360000     -1.3005020000      2.1893250000
H                 -2.6288750000      0.3964810000      1.7041220000
H                 -1.8194300000     -0.1091790000      3.1891090000
$end

$rem
   BASIS  =  6-311++G(d,p)
   GUI  =  2
   JOB_TYPE  =  SP
   METHOD  =  B3LYP
   SCF_CONVERGENCE  = 8
   SOLVENT_METHOD = sm12
$end

$smx
   solvent dimethylformamide
   charges CM5
$end





