%chk=052-rad.chk
%nproc=8
%mem=30GB
#P UB3LYP/6-311++G(d,p) nosym  opt freq

Radical

-1 2
  C     0.7045151    2.9109643    1.9850567
  C   -0.4994805    2.5220634    1.1921101
  C   -0.4050119    1.5032506    0.2939831
  C    0.8944760    0.7931934    0.1173803
  C    2.0916904    1.1838812    0.9140458
  C    1.9933501    2.1982473    1.8037507
  O    0.6376867    3.8236342    2.7951878
  O    0.9744818   -0.1208245   -0.6908839
  C   -1.7974605    3.2721241    1.4087348
  C   -1.5719633    1.0381066   -0.5554362
  C    3.3997565    0.4471536    0.7229773
  S    3.4128629    2.7141444    2.8022750
  C    4.0134559    3.9565892    1.6040500
  C    5.5437167    3.9956725    1.6390194
  C    6.1366475    4.9954962    0.6758432
  O    5.4223711    5.6847766   -0.0364086
  O    7.4762148    5.1351427    0.5930382
  H   -1.7024760    4.0693423    2.1738878
  H   -2.5855898    2.5710163    1.7559759
  H   -2.1173352    3.7563713    0.4620389
  H   -2.5124504    1.5961602   -0.3860044
  H   -1.7768551   -0.0320513   -0.3421746
  H   -1.3097636    1.1456551   -1.6289121
  H    3.3218479   -0.3573192   -0.0364553
  H    3.7126089   -0.0196208    1.6806761
  H    4.1871347    1.1531482    0.3854788
  H    3.5903077    4.9490036    1.8691627
  H    3.7028917    3.6844468    0.5716584
  H    5.9366814    2.9880545    1.3827206
  H    5.8768666    4.2577785    2.6662196
  H    8.0744727    4.6055848    1.1388236







