$molecule
-1 2
C                  0.4910750000      1.7038820000     -2.0313420000
C                 -0.8688580000      2.0133190000     -2.4762580000
C                 -1.8160840000      1.0636980000     -2.6804860000
C                 -1.5477590000     -0.3557040000     -2.4691550000
C                 -0.2177680000     -0.6709090000     -2.0315000000
C                  0.7745180000      0.2828990000     -1.8129320000
O                  1.3214130000      2.6256750000     -1.8638870000
O                 -2.4362670000     -1.2316910000     -2.6625120000
C                  3.2431310000      0.7550670000     -1.0801460000
C                  4.1706580000      1.0368820000     -2.0952660000
C                  3.4436150000      1.2283100000      0.2260060000
C                  4.5812920000      1.9910410000      0.5013120000
C                  5.2982380000      1.8018000000     -1.7871340000
C                  5.5077800000      2.2792000000     -0.4965600000
H                 -1.0767490000      3.0674970000     -2.6364180000
H                 -2.8177880000      1.3247720000     -3.0116680000
H                  0.0187610000     -1.7154580000     -1.8630920000
H                  4.7372070000      2.3645220000      1.5093800000
H                  6.0154250000      2.0274420000     -2.5711760000
H                  6.3875710000      2.8733270000     -0.2700350000
C                  2.0924720000     -0.1978490000     -1.3609980000
O                  2.3270080000     -1.3959420000     -1.1857460000
C                  2.4332870000      0.9460370000      1.3126820000
H                  2.2483430000     -0.1264880000      1.4181690000
H                  1.4744430000      1.4206260000      1.0816490000
H                  2.7790220000      1.3312500000      2.2753760000
C                  3.9405620000      0.5512470000     -3.5066560000
H                  3.0463960000      1.0168090000     -3.9329550000
H                  3.7909540000     -0.5314450000     -3.5383700000
H                  4.7905720000      0.7994050000     -4.1474600000
$end
$rem
   MAX_SCF_CYCLES=200
   BASIS  =  6-311++G(d,p)
   GUI  =  2
   JOB_TYPE  =  SP
   METHOD  =  B3LYP
   SOLVENT_METHOD = COSMO
$end
$solvent
   dielectric 37.219
   opticaldielectric 1.43
$end





