$molecule
-2 1
$end
$rem
   MAX_SCF_CYCLES=200
   BASIS  =  6-311++G(d,p)
   GUI  =  2
   JOB_TYPE  =  SP
   METHOD  =  B3LYP
   SOLVENT_METHOD = COSMO
$end
$solvent
   dielectric 37.219
   opticaldielectric 1.43
$end





