%chk=075.chk
%nproc=8
%mem=30GB
#P UB3LYP/6-311++G(d,p) nosym opt freq SCRF=(PCM,Solvent=n,n-DiMethylFormamide)

Oxidized

0 1
C                  1.5733050000      1.0836470000     -1.5533840000
C                  0.1133690000      0.8876010000     -1.3357930000
C                 -0.3555930000      0.1921770000     -0.2914930000
C                  0.5789920000     -0.4215020000      0.7076270000
C                  2.0314110000     -0.2172410000      0.4773480000
C                  2.4973620000      0.4784100000     -0.5674930000
O                  1.9776240000      1.7192800000     -2.5102590000
O                  0.1769010000     -1.0566450000      1.6620730000
C                 -1.8424770000     -0.0017850000     -0.0785850000
F                 -2.5614150000      0.6028810000     -1.0504960000
F                 -2.1750950000     -1.3051010000     -0.0917420000
F                 -2.2434210000      0.5203150000      1.0944670000
H                 -0.5411630000      1.3403070000     -2.0709430000
H                  2.6825230000     -0.6719670000      1.2156350000
H                  3.5558180000      0.6329440000     -0.7443600000


