%chk=121-an.chk
%nproc=8
%mem=30GB
#P UB3LYP/6-311++G(d,p) nosym opt freq

Reduced

-2 1
Cl                 2.6520140000      3.2070610000     -0.5224910000
C                  2.4748840000      1.4434340000     -0.2068580000
C                  3.6792120000      0.7921390000     -0.0621480000
C                  3.6928260000     -0.6045520000      0.1913290000
C                  2.4983580000     -1.2778170000      0.2870040000
C                  1.2457500000     -0.6332020000      0.1424290000
C                  0.0724930000     -1.4855490000      0.2710150000
O                  0.1959920000     -2.7386390000      0.5009480000
C                 -1.1978730000     -0.8077890000      0.1199260000
C                 -2.4747170000     -1.4433810000      0.2068460000
Cl                -2.6509370000     -3.2071510000      0.5225080000
C                 -3.6791500000     -0.7922930000      0.0621650000
C                 -3.6929540000      0.6044300000     -0.1913140000
C                 -2.4985560000      1.2778530000     -0.2870070000
C                 -1.2458390000      0.6334200000     -0.1424570000
C                 -0.0726670000      1.4857420000     -0.2710300000
O                 -0.1964550000      2.7387660000     -0.5009700000
C                  1.1979300000      0.8079810000     -0.1199490000
H                  4.6025050000      1.3547210000     -0.1436550000
H                  4.6420360000     -1.1233940000      0.3063570000
H                  2.4543630000     -2.3443820000      0.4793790000
H                 -4.6023560000     -1.3550130000      0.1436870000
H                 -4.6422100000      1.1231840000     -0.3063320000
H                 -2.4546500000      2.3444300000     -0.4793810000


