$molecule
0 1
C                 -1.7712760000      1.8855580000     -5.1550450000
C                 -1.6914700000      0.5495270000     -5.5279930000
C                 -1.3239020000     -0.4211760000     -4.5914040000
C                 -1.4841630000      2.2671670000     -3.8396760000
C                 -1.1157870000      1.2916090000     -2.9022640000
C                 -1.0371510000     -0.0515360000     -3.2834240000
C                 -1.5834520000      3.7176400000     -3.4845960000
C                 -0.8060840000      1.6723660000     -1.5005640000
C                 -1.2741350000      4.1147700000     -2.0674480000
C                 -0.9046420000      3.1112370000     -1.1403490000
C                 -1.3351970000      5.4412080000     -1.6174700000
C                 -1.0441480000      5.8015280000     -0.2740200000
C                 -0.6775980000      4.7559190000      0.6003930000
C                 -0.6093420000      3.4474650000      0.1814010000
O                 -1.9068620000      4.5243280000     -4.3363300000
O                 -0.4818610000      0.8330970000     -0.6728080000
H                 -2.0540620000      2.6517120000     -5.8656750000
H                 -1.9151920000      0.2603960000     -6.5485810000
H                 -1.2625790000     -1.4628140000     -4.8854370000
H                 -0.7501270000     -0.7831980000     -2.5385330000
Br                -0.2584810000      5.1715860000      2.4251670000
H                 -0.3272370000      2.6548630000      0.8613730000
N                 -1.1396490000      7.0875860000      0.1537230000
Cl                -1.7718930000      6.7818300000     -2.6611390000
H                 -1.2790140000      7.8219500000     -0.5201150000
H                 -0.8005150000      7.3267720000      1.0708040000
$end
$rem
   MAX_SCF_CYCLES=200
   BASIS  =  6-311++G(d,p)
   GUI  =  2
   JOB_TYPE  =  SP
   METHOD  =  B3LYP
   SOLVENT_METHOD = PCM
$end
$pcm
   theory = CPCM
$end
$solvent
   dielectric 37.219
   opticaldielectric 1.43
$end





