%chk=225.chk
%nproc=8
%mem=30GB
#P UB3LYP/6-311++G(d,p) nosym opt freq SCRF=(PCM,Solvent=n,n-DiMethylFormamide)

Oxidized

-2 1
O                  5.4952910000     -2.2488770000      0.6732510000
S                  5.4592980000     -0.9147240000      0.0207750000
O                  6.2930100000      0.1125920000      0.6985360000
O                  5.6098550000     -0.9549950000     -1.4543360000
C                  3.7383470000     -0.3396550000      0.2906880000
C                  3.4659590000      0.5658130000      1.3185730000
C                  2.1602050000      0.9773470000      1.5595490000
C                  1.1047470000      0.4926160000      0.7810560000
C                 -0.2824460000      0.9560780000      1.0702060000
O                 -0.5083420000      1.7477390000      1.9769460000
C                 -1.3808530000      0.4201110000      0.2146460000
C                 -2.6976780000      0.8276290000      0.4523800000
C                 -3.7383340000      0.3394970000     -0.3339310000
C                 -3.4659450000     -0.5661370000     -1.3617410000
C                 -2.1602260000     -0.9775260000     -1.6028020000
C                 -1.1047200000     -0.4925880000     -0.8244150000
C                  0.2824830000     -0.9559940000     -1.1136410000
O                  0.5083610000     -1.7476340000     -2.0204090000
C                  1.3808970000     -0.4200720000     -0.2580680000
C                  2.6976480000     -0.8276570000     -0.4957420000
S                 -5.4592710000      0.9150930000     -0.0651250000
O                 -5.4988070000      2.2421030000     -0.7318690000
O                 -6.2934310000     -0.1204310000     -0.7296940000
O                 -5.6058200000      0.9709730000      1.4098570000
H                  4.2945600000      0.9432940000      1.9057120000
H                  1.9319170000      1.6815890000      2.3507820000
H                 -2.9011350000      1.5184080000      1.2606380000
H                 -4.2944820000     -0.9441470000     -1.9486430000
H                 -1.9319320000     -1.6818820000     -2.3939250000
H                  2.9008430000     -1.5185630000     -1.3039610000


