$molecule
-1 2
N                 -5.0515430000     -0.6631730000     -0.5892000000
C                 -3.7398880000     -0.2164920000     -0.2825240000
C                 -3.5660600000      1.0212930000      0.3847940000
C                 -2.2979560000      1.4922360000      0.6504320000
C                 -1.1438530000      0.7765410000      0.2651760000
C                  0.1761470000      1.3224860000      0.5723890000
O                  0.3264250000      2.4170330000      1.1765100000
C                  1.3180200000      0.5166470000      0.1372850000
C                  2.6241600000      0.9801340000      0.4047490000
C                  3.7404280000      0.2587790000      0.0241990000
N                  5.0524370000      0.7520600000      0.2449700000
C                  3.5666550000     -0.9741610000     -0.6521150000
C                  2.2985350000     -1.4465310000     -0.9150260000
C                  1.1444130000     -0.7274310000     -0.5363340000
C                 -0.1756030000     -1.2753100000     -0.8400910000
O                 -0.3259940000     -2.3770370000     -1.4307670000
C                 -1.3173770000     -0.4650670000     -0.4129680000
C                 -2.6237040000     -0.9345540000     -0.6691470000
H                 -5.7268860000     -0.4318350000      0.1285500000
H                 -5.0878610000     -1.6543250000     -0.7897430000
H                 -4.4395130000      1.5985460000      0.6778880000
H                 -2.1494240000      2.4355640000      1.1637850000
H                  2.7169770000      1.9284050000      0.9252120000
H                  5.7221510000      0.0209550000      0.4488250000
H                  5.0854850000      1.4615580000      0.9655700000
H                  4.4402730000     -1.5391330000     -0.9677550000
H                  2.1500400000     -2.3901340000     -1.4279500000
H                 -2.7164840000     -1.8870520000     -1.1819060000
$end
$rem
   MAX_SCF_CYCLES=200
   BASIS  =  6-311++G(d,p)
   GUI  =  2
   JOB_TYPE  =  SP
   METHOD  =  B3LYP
   SOLVENT_METHOD = COSMO
$end
$solvent
   dielectric 37.219
   opticaldielectric 1.43
$end





