$molecule
0 1
C                 -3.0683270000     -1.7240670000     -0.0188160000
O                 -2.3146120000     -0.5301640000      0.2744040000
C                 -0.9848730000     -0.4815580000      0.0982350000
C                 -0.4143650000      0.6999640000     -0.2760500000
O                 -1.2040520000      1.7447690000     -0.6103960000
C                 -1.0186590000      2.9877730000      0.0917310000
C                  1.0533570000      0.8119590000     -0.4729690000
O                  1.5545200000      1.8378040000     -0.9076650000
C                  1.9213050000     -0.3748150000     -0.1616870000
C                  1.3430760000     -1.5168220000      0.2352680000
C                 -0.1158850000     -1.6503840000      0.4328180000
O                 -0.5857700000     -2.6809590000      0.8919360000
C                  3.3966650000     -0.1968560000     -0.3421870000
H                 -3.0239060000     -2.4280530000      0.8092520000
H                 -4.0883330000     -1.3759160000     -0.1761260000
H                 -2.7002130000     -2.2022420000     -0.9288240000
H                 -1.1746170000      2.8378350000      1.1645150000
H                 -1.7870310000      3.6549640000     -0.2949090000
H                 -0.0302480000      3.4042790000     -0.0986940000
H                  1.9158640000     -2.4086130000      0.4662330000
H                  3.7709620000      0.6007720000      0.3057790000
H                  3.9317620000     -1.1198760000     -0.1163360000
H                  3.6233790000      0.1102050000     -1.3665920000
$end
$rem
   MAX_SCF_CYCLES=200
   BASIS  =  6-311++G(d,p)
   GUI  =  2
   JOB_TYPE  =  SP
   METHOD  =  B3LYP
   SOLVENT_METHOD = PCM
$end
$pcm
   theory = CPCM
$end
$solvent
   dielectric 37.219
   opticaldielectric 1.43
$end





