%chk=289-PCM.chk
%nproc=8
%mem=30GB
#P UB3LYP/6-311++G(d,p) SCRF=(PCM,Solvent=n,n-DiMethylFormamide)

Quinone PCM in DMF 

0 1
C                 -2.0333110000      3.0491370000     -0.2439630000
C                 -2.9892750000      2.5002750000      0.6051810000
C                 -2.7043260000      1.3316720000      1.3138440000
C                 -0.7907470000      2.4260230000     -0.3823440000
C                 -0.5011370000      1.2501910000      0.3291180000
C                 -1.4655500000      0.7079160000      1.1766800000
C                  0.2325530000      2.9944550000     -1.2783880000
C                  1.5441920000      2.2931610000     -1.3856000000
C                  1.8439880000      1.1527270000     -0.7163060000
C                  0.8314550000      0.5693250000      0.1887000000
O                  0.0732750000      4.0115870000     -1.9440760000
O                  1.0648820000     -0.4548440000      0.8154700000
H                 -2.2310880000      3.9545390000     -0.8045970000
H                 -3.9544790000      2.9807350000      0.7157940000
H                 -3.4504120000      0.9056570000      1.9750490000
H                 -1.2283260000     -0.1990640000      1.7187150000
O                  2.4137580000      2.8893500000     -2.2175300000
H                  1.9519360000      3.6708660000     -2.5764830000
C                  3.1801760000      0.4746330000     -0.8344390000
C                  4.1698290000      0.9351370000      0.2589060000
C                  5.5204700000      0.1952910000      0.2438220000
C                  6.3472930000      0.5769200000      1.4799640000
C                  6.3207070000      0.4532770000     -1.0409440000
H                  3.5923670000      0.6797610000     -1.8238990000
H                  3.0296540000     -0.6040860000     -0.7415320000
H                  3.6987100000      0.7845150000      1.2355350000
H                  4.3473100000      2.0127340000      0.1544870000
H                  5.3081840000     -0.8809330000      0.3022210000
H                  7.2942080000      0.0296060000      1.5065160000
H                  5.8065050000      0.3566920000      2.4049880000
H                  6.5830220000      1.6469700000      1.4771800000
H                  7.2790940000     -0.0736140000     -1.0143980000
H                  6.5321860000      1.5219570000     -1.1588300000
H                  5.7887760000      0.1183700000     -1.9348310000





