$molecule
-2 1
C                 -2.0264270000      3.0455010000     -0.2542180000
C                 -2.9877060000      2.4984360000      0.5724990000
C                 -2.7075270000      1.3114580000      1.2983520000
C                 -0.7452180000      2.4511090000     -0.4055440000
C                 -0.4570400000      1.2425370000      0.3381110000
C                 -1.4623430000      0.7137520000      1.1694720000
C                  0.2375010000      3.0243900000     -1.2706590000
C                  1.4819640000      2.3348100000     -1.3337370000
C                  1.8034710000      1.1691270000     -0.6358940000
C                  0.8406800000      0.5656720000      0.2462570000
O                  0.0969650000      4.1037910000     -1.9944540000
O                  1.0917800000     -0.5021560000      0.9062740000
H                 -2.2200250000      3.9522940000     -0.8192100000
H                 -3.9611060000      2.9772800000      0.6679740000
H                 -3.4626350000      0.8763640000      1.9497990000
H                 -1.2143490000     -0.1933560000      1.7125420000
O                  2.3829280000      2.9371870000     -2.1876970000
H                  1.8293590000      3.7000460000     -2.4921770000
C                  3.1491900000      0.5096930000     -0.8005750000
C                  4.1839690000      0.9412060000      0.2634530000
C                  5.5255220000      0.1813940000      0.2264120000
C                  6.3886350000      0.5290760000      1.4492600000
C                  6.3126990000      0.4321560000     -1.0686630000
H                  3.5403410000      0.7286120000     -1.7997800000
H                  3.0059340000     -0.5740120000     -0.7084820000
H                  3.7239060000      0.7943880000      1.2462260000
H                  4.3773200000      2.0171920000      0.1580730000
H                  5.2959040000     -0.8927700000      0.2765940000
H                  7.3328220000     -0.0314810000      1.4597950000
H                  5.8568450000      0.3111610000      2.3816670000
H                  6.6426460000      1.5963440000      1.4554130000
H                  7.2666730000     -0.1103680000     -1.0706110000
H                  6.5372630000      1.4998490000     -1.1824880000
H                  5.7459390000      0.1202570000     -1.9499720000
$end
$rem
   MAX_SCF_CYCLES=200
   BASIS  =  6-311++G(d,p)
   GUI  =  2
   JOB_TYPE  =  SP
   METHOD  =  B3LYP
   SOLVENT_METHOD = COSMO
$end
$solvent
   dielectric 37.219
   opticaldielectric 1.43
$end





