%chk=294-rad.chk
%nproc=8
%mem=30GB
#P UB3LYP/6-311++G(d,p) nosym  opt freq

Radical

-1 2
C                 -6.37149000    0.97945600   -1.86636300
 C                 -6.45112200    1.24464400   -3.22088100
 C                 -5.45856900    0.75727000   -4.09495800
 C                 -5.30333700    0.22174600   -1.33930400
 C                 -4.29905500   -0.27117500   -2.22105900
 C                 -4.40313200    0.01252300   -3.59393100
 C                 -5.22139000   -0.05566400    0.07933200
 C                 -4.09228900   -0.83940200    0.52402800
 C                 -3.10822900   -1.33844000   -0.30311500
 C                 -3.15808600   -1.06897600   -1.72379400
 O                 -6.06249100    0.33496900    0.95388100
 O                 -2.27291100   -1.49530100   -2.51089800
 O                 -4.07946300   -1.05964700    1.87072700
 C                 -1.96137500   -2.15286800    0.23501000
 H                 -7.12263600    1.34339300   -1.17441100
 H                 -7.27870100    1.82906100   -3.61259200
 H                 -5.52193800    0.96615900   -5.15872700
 H                 -3.62533000   -0.37389700   -4.24284600
 H                 -4.89627000   -0.59499500    2.15919500
 C                 -0.69948500   -1.31282900    0.50866000
 C                  0.48184200   -2.17452900    0.99744300
 C                  1.73827500   -1.38103300    1.26758100
 C                  2.61580700   -1.03960200    0.23009600
 C                  2.05551900   -0.92846700    2.55161800
 C                  3.20047000   -0.16832400    2.78931700
 C                  4.07636600    0.17107900    1.75438200
 C                  3.75893100   -0.28158200    0.46694000
 C                  5.32103400    0.99655200    2.03000200
 C                  6.62477500    0.22490400    1.72734100
 C                  5.31626500    2.34949800    1.28441200
 C                  6.56598300    3.18433900    1.59917000
 C                  7.87472400    1.05970100    2.04142700
 C                  7.85654900    2.40682500    1.30578300
 H                 -1.70974500   -2.91947800   -0.50536200
 H                 -2.26733600   -2.65371000    1.15920700
 H                 -0.92465200   -0.54525400    1.25707400
 H                 -0.41594100   -0.79281400   -0.41110600
 H                  0.69083900   -2.94123300    0.24236200
 H                  0.18470400   -2.70543700    1.90927400
 H                  2.39469000   -1.37147300   -0.77977000
 H                  1.39527300   -1.17286500    3.37839800
 H                  3.41641800    0.16709700    3.80004300
 H                  4.41034300   -0.04143000   -0.36773600
 H                  5.32385400    1.22237800    3.10542600
 H                  6.63580000   -0.06048900    0.66802500
 H                  6.63647600   -0.70905500    2.29850300
 H                  4.41014400    2.90565700    1.54409300
 H                  5.26611900    2.16541200    0.20413800
 H                  6.55158400    3.47072900    2.65944000
 H                  6.54679800    4.11795800    1.02637200
 H                  8.77761000    0.49648800    1.78026600
 H                  7.92462700    1.24165100    3.12348400
 H                  7.93095000    2.22770700    0.22489400
 H                  8.73235700    3.00386800    1.58360500


