%chk=306.chk
%nproc=8
%mem=30GB
#P UB3LYP/6-311++G(d,p) nosym opt freq

Oxidized

0 1
C                 -4.1274410000      3.6410230000      1.5168370000
C                 -4.6133980000      3.8629350000      0.2313490000
C                 -4.0292610000      3.2247490000     -0.8517450000
C                 -2.9470140000      2.3505320000     -0.6776060000
C                 -2.4390320000      2.1119650000      0.6198140000
C                 -3.0543710000      2.7765050000      1.7054720000
C                 -2.5660700000      2.5685420000      3.1037810000
C                 -1.4291260000      1.6523620000      3.3075450000
C                 -0.8468320000      1.0231740000      2.2790200000
C                 -1.2899260000      1.1892680000      0.8453820000
O                 -3.0800910000      3.1304600000      4.0573370000
O                 -0.7204290000      0.5913430000     -0.0413530000
H                 -4.5633160000      4.1250490000      2.3808270000
H                 -4.4075090000      3.3970050000     -1.8553420000
O                 -2.3870880000      1.7349500000     -1.7425360000
Br                 0.6160380000     -0.1534180000      2.5583170000
H                 -5.4490730000      4.5342950000      0.0714360000
H                 -1.1005600000      1.5238120000      4.3313710000
H                 -2.8473720000      2.0035110000     -2.5461040000


