$molecule
-3 1
C                 -1.7270390000      1.9745580000     -5.1533280000
C                 -1.7340340000      0.6467000000     -5.5345170000
C                 -1.4978350000     -0.3608210000     -4.5633970000
C                 -1.4864460000      2.3696730000     -3.8133090000
C                 -1.2169470000      1.3563080000     -2.8411740000
C                 -1.2526260000      0.0004860000     -3.2529490000
C                 -1.5231230000      3.7757190000     -3.4624840000
C                 -0.9310600000      1.6701740000     -1.4496340000
C                 -1.2178700000      4.1234470000     -2.0812750000
C                 -0.8611450000      3.0914020000     -1.1093830000
C                 -1.2600510000      5.5205980000     -1.6703850000
C                 -0.8755820000      5.8768280000     -0.3641080000
C                 -0.4523820000      4.8848670000      0.5349340000
C                 -0.4582360000      3.5593390000      0.1762900000
O                 -1.8019860000      4.6427160000     -4.3773320000
O                 -0.7681040000      0.7397610000     -0.6006990000
H                 -1.9123710000      2.7665800000     -5.8705640000
H                 -1.9231620000      0.3670460000     -6.5704610000
H                 -1.5086860000     -1.4097260000     -4.8581230000
H                 -1.0698380000     -0.7452500000     -2.4866680000
Br                 0.2863920000      2.3908360000      1.5806280000
N                 -1.6849180000      6.4711410000     -2.5547590000
S                 -0.9599190000      7.5854970000      0.2696470000
O                 -0.5694340000      8.4749040000     -0.8794290000
O                 -2.3659760000      7.8295530000      0.7098840000
O                  0.0140910000      7.6461570000      1.4000260000
H                 -0.1045040000      5.1949490000      1.5103070000
H                 -1.7714530000      6.1193510000     -3.5133400000
H                 -1.4236470000      7.4248260000     -2.3310200000
$end

$rem
   BASIS  =  6-311++G(d,p)
   GUI  =  2
   JOB_TYPE  =  SP
   METHOD  =  B3LYP
   SCF_CONVERGENCE  = 8
   SOLVENT_METHOD = sm12
$end

$smx
   solvent dimethylformamide
   charges CM5
$end





