%chk=132-an.chk
%nproc=8
%mem=30GB
#P UB3LYP/6-311++G(d,p) nosym opt freq

Reduced

-2 1
C          6.89495       -1.64323       -0.25230
C          7.47666       -0.67256       -1.08731
C          6.66071        0.32882       -1.64932
C          5.28357        0.33391       -1.36185
C          4.71739       -0.63841       -0.52892
C          5.52220       -1.62606        0.02536
C          4.93982       -2.65894        0.90612
C          3.49049       -2.62727        1.18928
C          2.68641       -1.63925        0.63458
C          3.26844       -0.60654       -0.24594
C          2.92394       -3.60011        2.02259
C          1.54718       -3.59455        2.30955
C          0.73189       -2.59282        1.74717
C          1.31438       -1.62206        0.91202
O          5.64947       -3.53034        1.39529
O          2.55880        0.26489       -0.73505
C          0.99109       -4.66337        3.21103
C         -0.75046       -2.50100        1.99318
C          8.95648       -0.73811       -1.35214
C          7.18726        1.41060       -2.55420
H          7.51659       -2.42280        0.18809
H          4.64654        1.10616       -1.79362
H          3.56443       -4.37039        2.45217
H          0.68897       -0.84408        0.47360
H          1.77242       -5.35170        3.55069
H          0.24092       -5.25656        2.67847
H          0.54182       -4.21270        4.10171
H         -1.12491       -3.28926        2.65055
H         -1.29067       -2.58054        1.04386
H         -0.99100       -1.54069        2.46147
H          9.42268       -1.58169       -0.83189
H          9.44599        0.17522       -0.99933
H          9.14505       -0.86877       -2.42248
H          8.26345        1.33722       -2.72783
H          6.99199        2.39325       -2.11190
H          6.69236        1.35332       -3.52947







