%chk=239-rad.chk
%nproc=8
%mem=30GB
#P UB3LYP/6-311++G(d,p) nosym opt freq

Radical

-1 2
C    -2.8159227024    1.2848880592   -0.7148064119
C    -2.1199015811    0.0822349474   -0.1315179249
C    -2.7174755146   -0.1539928528    1.2366414075
C    -2.4468030606   -1.1071178959   -1.0049889417
C    -0.6770810256    0.2872532567   -0.1108544086
C    -0.1576374929    1.4074517094   -0.5648350627
C     1.2886764208    1.5881541513   -0.5331845033
O     1.7673060840    2.6488499480   -0.9640582640
C     2.1856726747    0.5735319134   -0.0167309210
C     3.5580429917    0.7306581926    0.0196326068
C     4.3941735255   -0.2455835193    0.5144783423
C     3.8524997509   -1.4209643792    0.9910708330
C     2.4825813577   -1.6232214698    0.9748020137
C     1.6707428412   -0.6112646643    0.4660748468
C     0.2258906656   -0.7540848684    0.4178330844
O    -0.2414762337   -1.8524017962    0.8661642355
H    -2.4813793390    1.4680871626   -1.7619106074
H    -3.9328379370    1.1585450803   -0.6779387512
H    -2.6106606627    2.1936741807   -0.1161902411
H    -2.3922479389   -1.0904921246    1.7034592816
H    -3.8178577898   -0.2336880862    1.0924595486
H    -2.5673908187    0.7296499008    1.8991703897
H    -3.5635616481   -1.0704400237   -1.1641301126
H    -2.1552613640   -2.0304597254   -0.4641782133
H    -1.9060465593   -0.9716891130   -1.9590114034
H    -0.7953168929    2.2175872720   -0.9712032310
H     3.9529937253    1.6692492911   -0.3638428557
H     5.4641681251   -0.1289628002    0.5454322535
H     4.4909860528   -2.2013202443    1.3843200079
H     2.0651243459   -2.5441315018    1.3487507705


