%chk=041-an-opt2.chk
%nproc=8
%mem=30GB
#P UB3LYP/6-311++G(d,p) nosym opt freq SCF=YQC Int=Acc2E=11

Reduced

-2 1
C                 17.0176400000      1.1718340000      4.1175770000
C                 16.3365780000      1.8159930000      3.0185070000
C                 16.9149060000      2.0277100000      1.7947400000
C                 18.2859990000      1.6053430000      1.5403040000
C                 18.9875090000      0.9498620000      2.6384650000
C                 18.3889930000      0.7418530000      3.8646730000
O                 16.4473710000      0.9951490000      5.2357350000
O                 18.8358070000      1.8050360000      0.4144920000
C                 19.1215880000      0.0636290000      4.9957140000
C                 20.4062140000      0.5056470000      2.3755930000
H                 15.3170930000      2.1358600000      3.2143270000
H                 19.4323600000     -0.9545290000      4.7275060000
H                 18.4664280000      0.0106280000      5.8661650000
H                 20.0340350000      0.6066780000      5.2742370000
H                 20.6789520000      0.7558540000      1.3498680000
H                 20.5259050000     -0.5759900000      2.5185820000
H                 21.1169110000      0.9921110000      3.0563460000
C                 16.1990290000      2.7306120000      0.6532090000
C                 14.7029050000      2.6136120000      0.6764510000
C                 13.7765470000      3.5793610000      0.7621300000
C                 12.3006770000      3.2302480000      0.7553160000
C                 11.6060490000      3.3899870000      2.1322650000
C                 10.1215440000      3.1636010000      2.0611450000
C                  9.3869040000      2.1925130000      2.6229440000
C                  7.8853150000      2.1553490000      2.4162740000
C                  7.3785470000      0.9535580000      1.5796430000
C                  5.8953850000      1.0152460000      1.3369430000
C                  4.9386620000      0.1662050000      1.7393290000
C                  3.4869500000      0.4289480000      1.3911820000
C                 14.0906610000      5.0528080000      0.8681640000
C                  9.9493460000      1.0961140000      3.4951160000
C                  5.1948680000     -1.0797350000      2.5533330000
C                  2.8665390000     -0.5970650000      0.4103150000
C                  1.4034620000     -0.3454670000      0.1674180000
C                  0.7798440000     -0.0402710000     -0.9796320000
C                 -0.7209520000      0.1685640000     -1.0019510000
C                 -1.5021250000     -0.8934260000     -1.8160260000
C                 -2.9925450000     -0.7161410000     -1.7120640000
C                 -3.8732100000     -0.4247350000     -2.6805930000
C                 -5.3484830000     -0.2957640000     -2.3595550000
C                 -6.2436930000     -1.3700200000     -3.0267560000
C                 -7.6824460000     -1.2699360000     -2.5984540000
C                 -8.7605500000     -0.9831120000     -3.3428420000
C                -10.1370170000     -0.9400980000     -2.7107550000
C                -11.1139650000     -2.0230240000     -3.2333380000
C                -12.4311500000     -2.0120030000     -2.5065470000
C                -13.6540650000     -1.7490360000     -2.9903280000
C                  1.4761190000      0.1221710000     -2.3096970000
C                 -3.5040530000     -0.1947020000     -4.1269190000
C                 -8.7175330000     -0.6740130000     -4.8207390000
C                -13.9404060000     -1.3789490000     -4.4265180000
C                -14.8643510000     -1.8013640000     -2.0801210000
C                -15.8819570000     -2.9148250000     -2.4333840000
C                -17.0084400000     -3.0032590000     -1.4403280000
C                -18.3201010000     -2.8043260000     -1.6377740000
C                -18.9339690000     -2.4159960000     -2.9620980000
C                -19.2962100000     -2.9523850000     -0.4886120000
C                -20.3117770000     -4.1106020000     -0.6558930000
C                -21.1789180000     -4.2896210000      0.5598710000
C                -22.5086320000     -4.1636310000      0.6686530000
C                -23.4411910000     -3.8053210000     -0.4616160000
C                -23.1989820000     -4.3746120000      1.9950610000
H                 16.5845100000      2.2934290000     -0.2756430000
H                 16.5184790000      3.7783410000      0.6188560000
H                 14.3378530000      1.5880370000      0.6151640000
H                 12.1689160000      2.1968020000      0.4209470000
H                 11.7755430000      3.8643740000      0.0260190000
H                 11.7831340000      4.4072190000      2.5028080000
H                 12.0872990000      2.7169740000      2.8442330000
H                  9.5856390000      3.8955750000      1.4546950000
H                  7.5638610000      3.0814310000      1.9284410000
H                  7.3822230000      2.1259830000      3.3922680000
H                  7.6606180000      0.0171260000      2.0643090000
H                  7.9007060000      0.9699890000      0.6143480000
H                  5.5713440000      1.8870010000      0.7674500000
H                  3.3886180000      1.4281720000      0.9569860000
H                  2.8892100000      0.4288530000      2.3134310000
H                 15.1616810000      5.2485570000      0.9082930000
H                 13.6417670000      5.4936010000      1.7657860000
H                 13.6780460000      5.6000120000      0.0100040000
H                 11.0167850000      1.2055640000      3.6808870000
H                  9.7946430000      0.1100740000      3.0430610000
H                  9.4387250000      1.0792690000      4.4657090000
H                  6.2260060000     -1.1569730000      2.8969730000
H                  4.9696580000     -1.9855640000      1.9794770000
H                  4.5441600000     -1.0987240000      3.4355470000
H                  2.9801700000     -1.6048390000      0.8292580000
H                  3.4384970000     -0.5869700000     -0.5203690000
H                  0.7830470000     -0.4197710000      1.0612620000
H                 -0.9467940000      1.1560800000     -1.4256890000
H                 -1.1013200000      0.1755770000      0.0246160000
H                 -1.2327400000     -1.8841020000     -1.4257630000
H                 -1.1773400000     -0.8762210000     -2.8580780000
H                 -3.3900690000     -0.8414890000     -0.7044250000
H                 -5.7061740000      0.6917620000     -2.6801370000
H                 -5.4895830000     -0.3420880000     -1.2747070000
H                 -5.8551810000     -2.3576310000     -2.7437280000
H                 -6.1536310000     -1.3057960000     -4.1126570000
H                 -7.8498960000     -1.4557230000     -1.5370730000
H                -10.5909490000      0.0432280000     -2.8925710000
H                -10.0416670000     -1.0443220000     -1.6248300000
H                -10.6381720000     -3.0032310000     -3.0945000000
H                -11.2590990000     -1.9034640000     -4.3084940000
H                -12.3607260000     -2.2488200000     -1.4444080000
H                  2.5627550000      0.1188580000     -2.2244520000
H                  1.1777930000      1.0653040000     -2.7823030000
H                  1.1961210000     -0.6765730000     -3.0057560000
H                 -2.4274800000     -0.1313450000     -4.2888750000
H                 -3.9531180000      0.7374120000     -4.4907550000
H                 -3.8882220000     -0.9948870000     -4.7697850000
H                 -7.7040420000     -0.5428040000     -5.2016340000
H                 -9.2757170000      0.2459010000     -5.0339040000
H                 -9.1911950000     -1.4676070000     -5.4100410000
H                -13.0375730000     -1.1845930000     -5.0065880000
H                -14.5658660000     -0.4789450000     -4.4703200000
H                -14.4989670000     -2.1699070000     -4.9401840000
H                -15.3894340000     -0.8374840000     -2.1151770000
H                -14.5345340000     -1.9399430000     -1.0451180000
H                -15.3433550000     -3.8721920000     -2.4484130000
H                -16.2626780000     -2.7624090000     -3.4448900000
H                -16.6956180000     -3.2633130000     -0.4284740000
H                -18.1921550000     -2.1530660000     -3.7172340000
H                -19.6017330000     -1.5549960000     -2.8350290000
H                -19.5491720000     -3.2257420000     -3.3712910000
H                -19.8626270000     -2.0192400000     -0.3681540000
H                -18.7395960000     -3.1025680000      0.4425410000
H                -19.7456680000     -5.0351090000     -0.8329540000
H                -20.9179850000     -3.9446200000     -1.5480310000
H                -20.6327040000     -4.5466990000      1.4678920000
H                -22.9338240000     -3.6413230000     -1.4131470000
H                -24.0031560000     -2.8934810000     -0.2204210000
H                -24.1872870000     -4.5968380000     -0.6097940000
H                -22.4919830000     -4.6344210000      2.7877060000
H                -23.9462940000     -5.1752030000      1.9262990000
H                -23.7410890000     -3.4707800000      2.3022440000










































































