%chk=255.chk
%nproc=8
%mem=30GB
#P UB3LYP/6-311++G(d,p) nosym opt freq

Oxidized

0 1
C                 -1.6278950000      2.7786250000      0.0198440000
C                 -2.8921000000      2.2017560000      0.0159550000
C                 -3.0133640000      0.8196660000      0.0065850000
C                 -0.4990510000      1.9640720000      0.0143310000
C                 -0.6133040000      0.5542780000      0.0044050000
C                 -1.8999310000     -0.0346430000      0.0005870000
C                  0.8309820000      2.6463970000      0.0191470000
C                  2.0693180000      1.8199130000      0.0132680000
C                  1.9756580000      0.4705410000      0.0038470000
C                  0.6550000000     -0.2408340000     -0.0012790000
O                  0.9002500000      3.8670600000      0.0275890000
O                  0.6744850000     -1.4641360000     -0.0102050000
C                  3.3761960000      2.5698520000      0.0184410000
C                  3.1695880000     -0.4411800000     -0.0025400000
C                 -2.2027230000     -1.5184040000     -0.0099600000
H                 -1.4920230000      3.8522680000      0.0274110000
H                 -3.7785870000      2.8259680000      0.0203470000
H                 -4.0021610000      0.3718170000      0.0039810000
H                  3.1894920000      3.6419400000      0.0259390000
H                  3.9739180000      2.3278560000     -0.8649000000
H                  3.9740040000      2.3155440000      0.8982590000
H                  4.1064110000      0.1118060000      0.0015410000
H                  3.1455890000     -1.0937510000     -0.8795670000
H                  3.1455800000     -1.1059820000      0.8652520000
H                 -1.3140730000     -2.1357500000     -0.0038110000
H                 -2.7958310000     -1.7632690000     -0.8972930000
H                 -2.8157080000     -1.7716110000      0.8611050000





