$molecule
0 1
C                 -1.8432880000      3.1500440000      0.2574010000
C                 -2.9766550000      2.4344540000     -0.1160300000
C                 -2.8633900000      1.0947690000     -0.4922290000
C                 -0.5953930000      2.5221150000      0.2529290000
C                 -0.4782910000      1.1743230000     -0.1246210000
C                 -1.6195810000      0.4660240000     -0.4963800000
C                  0.6148840000      3.2663980000      0.6453280000
C                  1.9231650000      2.5501130000      0.6183980000
C                  2.0595420000      1.2475420000      0.2683890000
C                  0.8577540000      0.4857760000     -0.1310090000
O                  0.6155730000      4.4418750000      0.9931210000
O                  0.9396670000     -0.6894670000     -0.4598220000
H                 -1.9058590000      4.1900330000      0.5535170000
H                 -3.9466890000      2.9179030000     -0.1144550000
H                 -3.7476250000      0.5389780000     -0.7829820000
H                 -1.5141130000     -0.5724400000     -0.7847630000
C                  3.3939310000      0.5539530000      0.2404850000
O                  2.9678070000      3.3115090000      0.9817140000
C                  4.0595390000      0.6043370000     -1.1485700000
H                  3.2451370000     -0.4893280000      0.5270720000
H                  4.0516660000      1.0192940000      0.9778050000
H                  2.6002810000      4.1900210000      1.1963020000
H                  3.4324690000      0.1179830000     -1.8989010000
H                  5.0217820000      0.0861080000     -1.1255750000
H                  4.2385250000      1.6359320000     -1.4616840000
$end
$rem
   MAX_SCF_CYCLES=200
   BASIS  =  6-311++G(d,p)
   GUI  =  2
   JOB_TYPE  =  SP
   METHOD  =  B3LYP
   SOLVENT_METHOD = COSMO
$end
$solvent
   dielectric 37.219
   opticaldielectric 1.43
$end





