$molecule
-1 2
N                 -3.3412030000     -0.8993340000      0.0762850000
C                 -2.0839070000     -0.2919340000      0.1265110000
C                 -1.9141430000      1.0499070000      0.4152710000
C                 -0.6354350000      1.6947220000      0.4301780000
O                 -0.4875900000      2.9158240000      0.6992780000
C                  0.5226280000      0.8329680000      0.0997720000
C                  1.8160470000      1.3815470000      0.0774820000
C                  2.9219990000      0.6023250000     -0.2227990000
C                  2.7540130000     -0.7669370000     -0.5103480000
C                  1.4903430000     -1.3287870000     -0.4938080000
C                  0.3511320000     -0.5502630000     -0.1934070000
C                 -0.9683130000     -1.1703870000     -0.1745980000
O                 -1.1630430000     -2.4065400000     -0.3892370000
H                 -4.0192760000     -0.5471400000      0.7359500000
H                 -3.2472860000     -1.9100910000      0.0756710000
H                 -2.7765780000      1.6749780000      0.6341950000
H                  1.9112590000      2.4374360000      0.3057630000
H                  3.9145700000      1.0433160000     -0.2360370000
H                  3.6185120000     -1.3816740000     -0.7456490000
H                  1.3362710000     -2.3799370000     -0.7104740000
$end
$rem
   MAX_SCF_CYCLES=200
   BASIS  =  6-311++G(d,p)
   GUI  =  2
   JOB_TYPE  =  SP
   METHOD  =  B3LYP
   SOLVENT_METHOD = COSMO
$end
$solvent
   dielectric 37.219
   opticaldielectric 1.43
$end





