%chk=299-rad.chk
%nproc=8
%mem=30GB
#P UB3LYP/6-311++G(d,p) nosym  opt freq

Radical

-1 2
 C                 -6.75556300    5.73996800    0.96515100
 C                 -7.85656900    4.98154800    0.61310100
 C                 -7.72979900    3.95647900   -0.34618200
 C                 -6.49987200    3.71068800   -0.93490800
 C                 -5.36504400    4.46745300   -0.59475100
 C                 -5.49523900    5.50319500    0.37462900
 C                 -4.34303400    6.29789500    0.74375700
 C                 -3.09690400    5.98052300    0.08525900
 C                 -2.93753000    4.99125400   -0.86200500
 C                 -4.06939500    4.17461500   -1.24416200
 O                 -4.34713200    7.24557500    1.59673200
 O                 -3.96572000    3.25264600   -2.09507400
 C                 -1.60101700    4.72039600   -1.50298500
 C                 -0.80361100    3.60707100   -0.79659200
 C                  0.54070100    3.30926700   -1.46939300
 C                  1.34358300    2.20268000   -0.77581800
 C                  2.68893500    1.89919400   -1.44551100
 C                  3.48766300    0.79136600   -0.74905000
 C                  4.83306300    0.48518300   -1.41700400
 C                  5.62564800   -0.62385700   -0.71497100
 C                  6.97255700   -0.92868200   -1.38533300
 C                  7.74042400   -2.03522700   -0.66407900
 S                  9.35238800   -2.35868600   -1.51592700
 C                 10.01858600   -3.66478700   -0.47666900
 C                  9.74951000   -5.00726000   -0.75995300
 C                 10.84732600   -3.35824000    0.60668200
 C                 11.38130600   -4.37439900    1.39603600
 C                 11.10746400   -5.71972300    1.12798400
 C                 10.28668400   -6.01724200    0.03480000
 C                 11.66115200   -6.81613500    2.00560700
 H                 -6.82805300    6.53371300    1.70015500
 H                 -8.82026700    5.17486700    1.07556100
 H                 -8.59518400    3.36129000   -0.62221600
 H                 -6.37322200    2.92837200   -1.67475900
 O                 -2.05549100    6.76728200    0.48514500
 H                 -1.00490600    5.63874900   -1.50977300
 H                 -1.77510500    4.41517300   -2.53985800
 H                 -1.41597900    2.69918600   -0.78163100
 H                 -0.63420000    3.89623900    0.24761700
 H                  1.14370200    4.22729700   -1.49959900
 H                  0.36424600    3.02541300   -2.51549200
 H                  0.74011700    1.28611300   -0.74582200
 H                  1.51729600    2.48527700    0.27096000
 H                  3.29309600    2.81570800   -1.47564100
 H                  2.51571000    1.61607700   -2.49216200
 H                  2.88286900   -0.12439300   -0.71876500
 H                  3.66031400    1.07457600    0.29759300
 H                  5.43956400    1.39965400   -1.44658600
 H                  4.66174000    0.20035100   -2.46313800
 H                  5.01951400   -1.53825700   -0.68641000
 H                  5.79731000   -0.33851700    0.33074600
 H                  7.58251500   -0.01849100   -1.41095300
 H                  6.80407700   -1.22135000   -2.42797000
 H                  7.16715000   -2.96499500   -0.65672700
 H                  7.95313800   -1.75113100    0.36898300
 H                  9.12424500   -5.25707900   -1.60929000
 H                 11.07728400   -2.32162400    0.82405000
 H                 12.02531200   -4.11560500    2.23092000
 H                 10.06803700   -7.05364300   -0.20360600
 H                 12.61359500   -6.52491000    2.45476100
 H                 11.81962500   -7.73778000    1.44056200
 H                 10.97082600   -7.04885300    2.82408100
 H                 -2.48944600    7.35876300    1.13944600


