%chk=093-rad.chk
%nproc=8
%mem=30GB
#P UB3LYP/6-311++G(d,p) nosym  opt freq SCF=YQC Int=Acc2E=11

Radical

-1 2
 C                 17.12115500    1.30354300   -0.34117200
 C                 16.52459700    0.28782800    0.51770100
 C                 16.06453800    0.59881800    1.77989300
 C                 16.12730500    1.95119600    2.31183500
 C                 16.67937200    2.97291400    1.43387100
 C                 17.14854100    2.66547200    0.17684100
 O                 17.59236000    1.02828900   -1.48348100
 O                 15.72142900    2.22904000    3.47928700
 C                 17.15144100    3.92187400   -1.83911500
 C                 15.61625100    4.92512400    2.27043200
 C                 16.46584700   -1.11440600   -0.03992300
 H                 17.73736800    4.72882800   -2.28559300
 H                 16.11244700    4.26071600   -1.71962200
 H                 17.18373000    3.03547000   -2.47523600
 H                 15.90976300    5.92222600    2.60730500
 H                 15.10722500    4.39001300    3.07419700
 H                 14.94747100    5.02505500    1.40360400
 C                 15.46816000   -0.44610500    2.70853500
 C                 13.96806800   -0.52753100    2.57847800
 C                 13.18838900   -1.59603000    2.35800200
 C                 11.68652700   -1.42728800    2.23364300
 C                 11.15220200   -1.59982000    0.78807300
 C                  9.65600100   -1.48501900    0.71031600
 C                  8.91228400   -0.55229100    0.09779600
 C                  7.39946900   -0.61632600    0.17148600
 C                  6.75831500    0.50428000    1.02832400
 C                  5.25658700    0.44148700    1.02053000
 C                  4.41705600    0.22435100    2.04310500
 C                  2.92053000    0.19834800    1.80600300
 C                 13.69361600   -3.01314700    2.22445300
 C                  9.47534200    0.60005200   -0.69829100
 C                  4.85433400   -0.00928600    3.46927400
 C                  2.15249800    1.37361300    2.46165900
 C                  0.66985100    1.28270800    2.23056700
 C                 -0.13249400    2.12286500    1.56126800
 C                 -1.61235100    1.82072700    1.43378400
 C                 -2.06465800    1.45890100   -0.00345100
 C                 -3.54560900    1.21480600   -0.09018300
 C                 -4.19640500    0.08905200   -0.41683900
 C                 -5.71184200    0.06364900   -0.42811900
 C                 -6.34241000   -0.80959800    0.68584400
 C                 -7.84308900   -0.84336900    0.59957100
 C                 -8.74846400   -0.39821700    1.48254300
 C                -10.22848100   -0.52041100    1.17942000
 C                -10.94126300    0.83343900    0.93450300
 C                -12.41304000    0.66269000    0.67861200
 C                -13.11591700    0.95735000   -0.42439700
 C                  0.32724000    3.40231700    0.90530900
 C                 -3.52312500   -1.20510500   -0.80448900
 C                 -8.40797200    0.22898000    2.81260800
 C                -12.53023500    1.57492400   -1.67100500
 C                -14.60625700    0.68532400   -0.47127000
 C                -15.01499200   -0.45022300   -1.44245200
 C                -16.50503800   -0.64377700   -1.49819000
 C                -17.22620300   -1.72448800   -1.16757700
 C                -16.64011600   -3.01475400   -0.64714800
 C                -18.73501400   -1.70295600   -1.30646200
 C                -19.28364000   -2.63337300   -2.41702000
 C                -20.78559800   -2.61436500   -2.48594000
 C                -21.57549800   -2.20860200   -3.49014500
 C                -21.07079200   -1.66665400   -4.80592800
 C                -23.08269600   -2.27652800   -3.35051700
 H                 15.69568100   -0.12855200    3.73245500
 H                 15.93670800   -1.41772600    2.54257500
 H                 13.47771500    0.43887400    2.68206300
 H                 11.40059500   -0.43325900    2.58984700
 H                 11.17443100   -2.15337500    2.88223000
 H                 11.44626400   -2.58914300    0.41603900
 H                 11.64943400   -0.86960100    0.14679800
 H                  9.11712300   -2.26624000    1.24885100
 H                  7.09249300   -1.58354100    0.58085100
 H                  6.98110600   -0.55843000   -0.84330000
 H                  7.06759100    1.47843700    0.63053200
 H                  7.16121000    0.44692600    2.04177300
 H                  4.80791400    0.57883000    0.03588700
 H                  2.50706100   -0.74350500    2.19306600
 H                  2.72002200    0.20909000    0.73060400
 H                 14.77788900   -3.07933300    2.30786600
 H                 13.40980600   -3.45624500    1.26246600
 H                 13.25734900   -3.65207700    3.00395200
 H                 10.56222400    0.57991700   -0.76251900
 H                  9.19169100    1.56366300   -0.26103500
 H                  9.07666600    0.59011400   -1.72027300
 H                  5.93328800   -0.12342100    3.56700600
 H                  4.38294300   -0.91479900    3.86920300
 H                  4.55042500    0.81654600    4.12234100
 H                  2.56350700    2.31348600    2.08653500
 H                  2.33960800    1.36250700    3.54238900
 H                  0.20353500    0.39698500    2.66357700
 H                 -2.19205400    2.69111600    1.77104300
 H                 -1.87606800    0.99335400    2.09901300
 H                 -1.49171900    0.59336100   -0.34310900
 H                 -1.80702500    2.28511900   -0.67728000
 H                 -4.15719400    2.08226700    0.16039700
 H                 -6.06137200   -0.30964700   -1.40058500
 H                 -6.09620100    1.08296300   -0.32898600
 H                 -6.00125900   -0.44057000    1.65555000
 H                 -5.96397000   -1.83491200    0.59327400
 H                 -8.22785700   -1.28441000   -0.32055200
 H                -10.72950500   -1.03020500    2.01382500
 H                -10.37075700   -1.15173500    0.29756000
 H                -10.44439300    1.34628400    0.10805000
 H                -10.81171800    1.47050300    1.81793800
 H                -12.96463300    0.22863000    1.51316800
 H                  1.38501100    3.60657600    1.06661700
 H                 -0.24277800    4.25550800    1.29227100
 H                  0.15753400    3.37843800   -0.17655900
 H                 -2.43675700   -1.12897900   -0.83029300
 H                 -3.86099500   -1.52828200   -1.79637400
 H                 -3.78067600   -2.01129200   -0.10926200
 H                 -7.33740100    0.24669600    3.01350000
 H                 -8.89394400   -0.31966000    3.62816800
 H                 -8.77158400    1.26050900    2.87049700
 H                -11.46726000    1.79495200   -1.57893400
 H                -13.04768400    2.51137400   -1.91110600
 H                -12.65715700    0.91750400   -2.53773000
 H                -15.13354200    1.60223500   -0.76843400
 H                -14.96435700    0.43096400    0.53049600
 H                -14.49909700   -1.36756000   -1.15013300
 H                -14.65815500   -0.20474800   -2.45033900
 H                -17.05674200    0.22953600   -1.84756100
 H                -15.57202400   -2.94477500   -0.44354900
 H                -16.78697100   -3.83516500   -1.35824900
 H                -17.14059300   -3.31266600    0.28144900
 H                -19.06992000   -0.68210500   -1.51183200
 H                -19.19186600   -1.99638800   -0.35137600
 H                -18.95725400   -3.66121800   -2.21633800
 H                -18.83223300   -2.34952300   -3.37042200
 H                -21.27989300   -2.97130500   -1.58188300
 H                -19.99378100   -1.50175100   -4.81280000
 H                -21.55840900   -0.71243000   -5.03624300
 H                -21.30566800   -2.34587900   -5.63301300
 H                -23.34011400   -2.52062800   -2.31501000
 C                -23.76269300   -3.30556100   -4.28821700
 H                -23.51529400   -1.28860500   -3.55588400
 C                -25.24143600   -3.41315100   -4.03743300
 C                -26.25572100   -3.12377800   -4.86356500
 C                -27.68840700   -3.29274200   -4.41840000
 C                -26.10130800   -2.62080400   -6.27704000
 H                -23.29679100   -4.28362900   -4.11130600
 H                -23.55824800   -3.05067500   -5.32983400
 H                -25.50255900   -3.76485100   -3.03916100
 H                -27.75403400   -3.65862000   -3.39176000
 H                -28.22055500   -3.99898500   -5.06713400
 H                -28.23311900   -2.34279900   -4.47820600
 H                -25.06253800   -2.48576600   -6.57693900
 H                -26.61511500   -1.66008900   -6.39984700
 H                -26.56871400   -3.31543500   -6.98517900
 O                 17.74089900    3.66156900   -0.56845300
 O                 16.82131800    4.26285000    1.89767600
 H                 17.12526500   -1.79943700    0.50898900
 H                 16.79298700   -1.09828300   -1.07996600
 H                 15.45385500   -1.52923800    0.01153400











