$molecule
0 1
C                  1.2095470000     -0.6456890000      1.8476190000
C                  0.8118800000     -1.6720200000      0.8487220000
C                 -0.2762680000     -1.5371220000      0.0804520000
C                 -1.1420300000     -0.3385180000      0.1827590000
C                 -0.7374360000      0.7160110000      1.1553740000
C                  0.3545560000      0.5776180000      1.9170940000
O                  2.1690340000     -0.8186640000      2.5737070000
O                 -2.1452900000     -0.2106800000     -0.4948320000
S                  0.8374810000      1.9822650000      2.9902290000
C                  0.7958900000      1.3396870000      4.6691890000
C                 -0.3985420000      1.4167100000      5.3849210000
C                  1.9606010000      0.8179510000      5.2280660000
C                  1.9189240000      0.3536480000      6.5401550000
C                 -0.4251430000      0.9423840000      6.6937970000
C                  0.7304910000      0.4126900000      7.2681450000
O                  2.2119620000      2.3371210000      2.6415560000
O                 -0.2531670000      2.9541530000      2.8575390000
H                  1.4585170000     -2.5412440000      0.8005630000
H                 -0.5794200000     -2.2863050000     -0.6422790000
H                 -1.3596130000      1.6028010000      1.2113560000
H                 -1.2763650000      1.8580520000      4.9301090000
H                  2.8697280000      0.7799530000      4.6437220000
H                  2.8159210000     -0.0512880000      6.9936100000
H                 -1.3430910000      0.9982630000      7.2669710000
H                  0.7057500000      0.0487630000      8.2890750000
$end
$rem
   MAX_SCF_CYCLES=200
   BASIS  =  6-311++G(d,p)
   GUI  =  2
   JOB_TYPE  =  SP
   METHOD  =  B3LYP
   SOLVENT_METHOD = PCM
$end
$pcm
   theory = CPCM
$end
$solvent
   dielectric 37.219
   opticaldielectric 1.43
$end





