%chk=295-an.chk
%nproc=8
%mem=30GB
#P UB3LYP/gen nosym opt freq SCF=YQC

Reduced

-2 1
 C                 -1.04252980    2.01686556   -0.29240868
 C                 -1.50644780    2.11117756    1.00979332
 C                 -0.87034780    1.37750956    2.04353332
 C                  0.06591420    1.19519656   -0.62322568
 C                  0.71395920    0.44968156    0.42667232
 C                  0.21813320    0.56721556    1.74055932
 C                  0.53980120    1.10168956   -1.97815068
 C                  1.66968920    0.23988956   -2.19672068
 C                  2.31837320   -0.49983744   -1.21377768
 C                  1.86982420   -0.42253644    0.15794932
 O                  0.03889220    1.71951356   -3.00197268
 O                  2.43765120   -1.07914044    1.09331732
 H                 -1.51551080    2.57072456   -1.10020368
 H                 -2.35993180    2.74993056    1.24032432
 H                 -1.23250580    1.45005356    3.06914932
 H                  0.72650820   -0.00564644    2.51267732
 O                  2.06852920    0.19747556   -3.51213068
 C                  3.48560620   -1.39570344   -1.55038568
 C                  4.86208420   -0.71131744   -1.40937068
 C                  6.03584420   -1.64530944   -1.73940668
 C                  7.41798420   -0.98717244   -1.61120368
 C                  8.58584620   -1.92368344   -1.95478468
 C                  9.97287720   -1.27585144   -1.83096968
 C                 11.12816920   -2.22490244   -2.18399168
 C                 12.52045220   -1.58721744   -2.06539168
 C                 13.67244820   -2.55746244   -2.42783968
 C                 15.04115320   -1.95891044   -2.32097168
 Br                16.56205980   -3.63295656   -2.92254032
 H                  1.40488520    0.81184656   -3.92341468
 H                  3.38218820   -1.76656744   -2.57983268
 H                  3.46120120   -2.25719144   -0.86973568
 H                  4.96144220   -0.34190344   -0.37974968
 H                  4.89499420    0.16657356   -2.07091068
 H                  5.91544720   -2.02951744   -2.76544468
 H                  5.99309720   -2.52469144   -1.07735868
 H                  7.54464720   -0.61063344   -0.58427568
 H                  7.45921720   -0.10254744   -2.26601868
 H                  8.45565220   -2.30038444   -2.98165568
 H                  8.54274520   -2.80891244   -1.30088768
 H                 10.10942520   -0.90370944   -0.80368068
 H                 10.01908820   -0.38975244   -2.48314968
 H                 10.98819020   -2.59772944   -3.21070468
 H                 11.07997520   -3.11093744   -1.53186868
 H                 12.66956220   -1.21829644   -1.03979868
 H                 12.57617920   -0.70283944   -2.71732268
 H                 13.51530920   -2.92371444   -3.45345268
 H                 13.60965020   -3.43962344   -1.77322868
 H                 15.41324720   -1.74349544   -1.32111168
 H                 15.31493020   -1.20828344   -3.06001768

H C O 0
6-311++G(d,p)
****
Br 0
6-31G*
****






























