$molecule
-2 1
C                 -4.0732120000      3.5795140000      1.5405380000
C                 -4.5644640000      3.8061190000      0.2740470000
C                 -3.9640610000      3.1583250000     -0.8278580000
C                 -2.8806200000      2.3059540000     -0.6427420000
C                 -2.3514480000      2.0189640000      0.6518070000
C                 -2.9792930000      2.7105880000      1.7667610000
C                 -2.5195140000      2.5449990000      3.1444720000
C                 -1.4179130000      1.6588690000      3.2935900000
C                 -0.8043450000      0.9771390000      2.2422930000
C                 -1.2344850000      1.0926780000      0.8736080000
O                 -3.0680870000      3.1597150000      4.1351670000
O                 -0.6558480000      0.4156810000     -0.0456490000
H                 -4.5027530000      4.0521100000      2.4173510000
H                 -4.3511640000      3.3145890000     -1.8359870000
O                 -2.3216530000      1.7201860000     -1.7634550000
C                  0.3576470000      0.0543520000      2.5048440000
H                 -5.4074860000      4.4744220000      0.1096700000
H                 -1.0467970000      1.5201880000      4.3103390000
H                 -2.7418370000      2.1434750000     -2.5228100000
H                  0.6560080000      0.0892270000      3.5601580000
H                  1.2208260000      0.3171840000      1.8780680000
H                  0.1168380000     -0.9864060000      2.2426100000
$end
$rem
   MAX_SCF_CYCLES=200
   BASIS  =  6-311++G(d,p)
   GUI  =  2
   JOB_TYPE  =  SP
   METHOD  =  B3LYP
   SOLVENT_METHOD = PCM
$end
$pcm
   theory = CPCM
$end
$solvent
   dielectric 37.219
   opticaldielectric 1.43
$end






