%chk=217-an.chk
%nproc=8
%mem=30GB
#P UB3LYP/6-311++G(d,p) nosym opt freq

Reduced

-2 1
C          5.07431       -2.18809        0.28795
C          5.81032       -1.42448       -0.62440
C          5.14700       -0.68964       -1.61023
C          3.66883       -2.22054        0.22309
C          3.00203       -1.47583       -0.77319
C          3.75334       -0.71321       -1.68573
C          2.88564       -3.03019        1.19162
C          1.40232       -3.05789        1.11333
C          0.73610       -2.31306        0.11669
C          1.51901       -1.50313       -0.85147
C          0.65093       -3.82190        2.02576
C         -0.66869       -2.34631        0.05144
C         -1.40191       -3.10849        0.96243
O          3.46337       -3.67562        2.05528
O          0.94134       -0.85761       -1.71509
H          5.59977       -2.75542        1.04601
S          7.60156       -1.39241       -0.53550
H         -2.48268       -3.12353        0.89902
H          3.26359       -0.13464       -2.45899
H          1.14947       -4.39707        2.79564
H         -1.20145       -1.78283       -0.70432
C         -0.74618       -3.84722        1.94959
S         -1.70560       -4.81974        3.11136
O         -0.83159       -5.86393        3.82594
O         -2.20730       -3.94852        4.27497
O         -3.07498       -5.67831        2.48081
C         -3.78463       -6.25582        3.54689
H         -3.14382       -6.94682        4.13561
H         -4.61128       -6.86408        3.12620
H         -4.24619       -5.47501        4.18806
H          5.70979       -0.09827       -2.32127
O          8.08542       -1.55991        0.91460
O          8.14264        0.00109       -0.89742
O          8.47361       -2.54463       -1.49506
C          9.85174       -2.31861       -1.34206
H         10.16744       -2.44242       -0.28409
H         10.14298       -1.32565       -1.74597
H         10.39754       -3.08227       -1.93303







