%chk=268-an.chk
%nproc=8
%mem=30GB
#P UB3LYP/6-311++G(d,p) nosym opt freq

Reduced

-2 1
C          1.54268        3.37258       -0.36002
C          0.78390        3.06433       -1.49083
C          0.10404        1.84909       -1.56618
C          1.62107        2.46248        0.70289
C          0.93937        1.24930        0.62523
C          0.18042        0.93972       -0.51046
C          2.43200        2.79691        1.89280
C          2.44636        1.82851        3.00355
C          1.78304        0.66760        2.93119
C          1.01296        0.28537        1.73617
O          3.06807        3.84111        1.92019
O          0.45685       -0.80280        1.68507
S          3.29814        2.20543        4.46340
O          2.85156        3.48744        4.97622
O          3.27897        1.05107        5.34934
C          4.99276        2.37384        3.93760
C          5.54910        3.64341        3.76259
C          5.77148        1.22336        3.76643
C          6.88452        3.75989        3.37740
C          7.66048        2.61524        3.18679
C          7.10710        1.34921        3.38480
H          2.06947        4.32471       -0.31275
H          0.72315        3.77364       -2.31385
H         -0.48707        1.60966       -2.44783
H         -0.35368       -0.00709       -0.57591
H          1.76556       -0.05839        3.73925
H          4.95056        4.54061        3.90943
H          5.35634        0.23350        3.94190
H          7.32133        4.74464        3.22868
H          8.70297        2.71163        2.89211
H          7.72214        0.46225        3.25169








