%chk=004-an-PCM.chk
%nproc=8
%mem=30GB
#P UB3LYP/6-311++G(d,p) SCRF=(PCM,Solvent=n,n-DiMethylFormamide)

Reduced 

-2 1
C                 -1.2202220000      1.9887820000     -0.4394690000
C                 -2.4643770000      1.2617270000     -0.4350260000
C                 -2.6687270000     -0.0575580000     -0.0144880000
C                 -1.5606300000     -0.8476530000      0.4840380000
C                 -0.3133040000     -0.1544020000      0.4992370000
C                 -0.1764500000      1.1605100000      0.0632520000
Br                 1.6379230000      1.9547500000      0.1511580000
C                 -4.0695280000     -0.7030400000     -0.0579100000
C                 -5.1642390000      0.2370260000     -0.5985900000
C                 -4.4792790000     -1.1388370000      1.3705710000
C                 -4.0295670000     -1.9533540000     -0.9726250000
O                 -1.1149380000      3.2071010000     -0.8431360000
O                 -1.6660690000     -2.0835280000      0.8911400000
H                 -3.2968610000      1.8510450000     -0.8085310000
H                  0.5486450000     -0.7025300000      0.8641480000
H                 -5.2694140000      1.1341670000      0.0194900000
H                 -6.1298100000     -0.2876200000     -0.6039900000
H                 -4.9494470000      0.5609460000     -1.6222320000
H                 -4.5836970000     -0.2587020000      2.0164490000
H                 -3.6995340000     -1.7884250000      1.7763880000
H                 -5.4412840000     -1.6743630000      1.3603980000
H                 -3.8002040000     -1.6573370000     -2.0028330000
H                 -5.0028430000     -2.4719420000     -0.9738620000
H                 -3.2493850000     -2.6284100000     -0.6140660000





