%chk=231-rad.chk
%nproc=8
%mem=30GB
#P UB3LYP/6-311++G(d,p) nosym opt freq

Radical

-1 2
C          5.90833       -5.21048        1.07345
C          6.78937       -5.07325       -0.00018
C          6.56144       -4.09628       -0.96724
C          4.79322       -4.36700        1.18227
C          4.56563       -3.39150        0.21667
C          5.45231       -3.25583       -0.86137
C          3.87206       -4.52432        2.32272
C          2.70477       -3.60708        2.40405
C          2.48584       -2.66873        1.47521
C          3.39873       -2.49558        0.31453
O          4.08824       -5.39221        3.16094
O          3.21395       -1.64487       -0.54844
H          6.09628       -5.97776        1.82369
H          7.65376       -5.72928       -0.08137
H          5.28386       -2.49552       -1.62324
Cl         1.66264       -3.83822        3.77054
H          7.24753       -3.98807       -1.80492
Cl         1.13619       -1.58182        1.53699








