$molecule
-1 2
C                 -0.9084430000      3.8208760000     -0.6561560000
C                 -2.0018530000      3.0226350000     -0.1533810000
C                 -1.8514750000      1.7255380000      0.2846040000
C                  0.4520010000      3.1693380000     -0.6842630000
C                  0.5547820000      1.7975950000     -0.2001400000
C                 -0.5584770000      1.1242340000      0.2580900000
O                  1.4621130000      3.7837260000     -1.1021850000
O                 -1.0752490000      4.9991790000     -1.0493970000
C                  1.9424280000      1.1944910000     -0.2349560000
C                  2.0886740000     -0.2413200000      0.2750640000
C                  3.5308340000     -0.7576700000      0.2012330000
C                  3.6919380000     -2.1943790000      0.7096430000
C                 -3.0394660000      0.9151250000      0.7581400000
C                 -3.6025960000     -0.0473350000     -0.3056690000
C                 -4.8031150000     -0.8664610000      0.1818640000
C                 -5.3625990000     -1.8194240000     -0.8798430000
H                 -2.9767740000      3.5056670000     -0.1346580000
H                 -0.4657030000      0.1034250000      0.6207810000
H                  2.6170070000      1.8522220000      0.3294050000
H                  2.3175980000      1.2550410000     -1.2654370000
H                  1.4410470000     -0.9121390000     -0.3045800000
H                  1.7409310000     -0.3059400000      1.3144240000
H                  4.1823420000     -0.0911810000      0.7799880000
H                  3.8830060000     -0.6966470000     -0.8360210000
H                  3.3796770000     -2.2798700000      1.7561110000
H                  4.7311710000     -2.5338110000      0.6441840000
H                  3.0778270000     -2.8900190000      0.1275230000
H                 -3.8390940000      1.5956910000      1.0745450000
H                 -2.7607050000      0.3283910000      1.6450060000
H                 -2.8058760000     -0.7260730000     -0.6336610000
H                 -3.8883490000      0.5350240000     -1.1898520000
H                 -5.5964470000     -0.1831910000      0.5112820000
H                 -4.5119120000     -1.4419730000      1.0701980000
H                 -5.6928990000     -1.2693570000     -1.7671200000
H                 -6.2188020000     -2.3890300000     -0.5031110000
H                 -4.6020400000     -2.5372100000     -1.2047380000
$end
$rem
   MAX_SCF_CYCLES=200
   BASIS  =  6-311++G(d,p)
   GUI  =  2
   JOB_TYPE  =  SP
   METHOD  =  B3LYP
   SOLVENT_METHOD = PCM
$end
$pcm
   theory = CPCM
$end
$solvent
   dielectric 37.219
   opticaldielectric 1.43
$end






