%chk=319-rad.chk
%nproc=8
%mem=30GB
#P UB3LYP/6-311++G(d,p) nosym  opt freq

Radical

-1 2
C                 -0.7197850000      4.1871320000     -0.0864730000
C                 -1.9263830000      3.3986600000     -0.0700120000
C                 -1.9377630000      2.0195830000     -0.0433940000
C                  0.5860150000      3.4291680000     -0.0735310000
C                  0.5181010000      1.9751260000     -0.0461140000
C                 -0.6976010000      1.3182170000     -0.0317360000
O                  1.6883250000      4.0264420000     -0.0864390000
O                 -0.7444360000      5.4400370000     -0.1099090000
C                  1.8518890000      1.2590890000     -0.0347520000
C                  1.8203230000     -0.2710490000     -0.0076990000
C                  3.2201220000     -0.8974980000      0.0015990000
C                  3.2034400000     -2.4296050000      0.0286350000
C                 -3.2793900000      1.2944540000     -0.0256920000
C                 -3.2541290000     -0.2377680000     -0.0056070000
C                 -4.6565680000     -0.8576980000      0.0091030000
C                 -4.6450240000     -2.3896960000      0.0320290000
H                 -2.8595580000      3.9592660000     -0.0793560000
H                 -0.7120700000      0.2345920000     -0.0111730000
H                  2.4321480000      1.6258030000      0.8227060000
H                  2.4300350000      1.5952520000     -0.9061720000
H                  1.2677070000     -0.6495370000     -0.8777300000
H                  1.2702310000     -0.6185980000      0.8766200000
H                  3.7765120000     -0.5236200000      0.8700650000
H                  3.7743390000     -0.5547330000     -0.8811250000
H                  2.6850200000     -2.8027180000      0.9186410000
H                  4.2162410000     -2.8464080000      0.0348580000
H                  2.6829140000     -2.8340750000     -0.8461500000
H                 -3.8634330000      1.6153370000     -0.8999030000
H                 -3.8532920000      1.6381430000      0.8465420000
H                 -2.6999370000     -0.5883340000      0.8737210000
H                 -2.7073860000     -0.6115910000     -0.8800700000
H                 -5.2141210000     -0.5111920000     -0.8703940000
H                 -5.2075450000     -0.4848560000      0.8818610000
H                 -4.1301890000     -2.7933070000     -0.8463230000
H                 -5.6593500000     -2.8020920000      0.0418610000
H                 -4.1239020000     -2.7667610000      0.9184260000





