%chk=267-rad.chk
%nproc=8
%mem=30GB
#P UB3LYP/6-311++G(d,p) nosym  opt freq

Radical

-1 2
C                 -1.2379970000      2.7334090000     -0.5181290000
C                 -2.5151820000      2.2073740000     -0.4572760000
C                 -2.7162120000      0.8929190000      0.0114110000
C                 -0.1166310000      1.9757660000     -0.1168420000
C                 -0.3221120000      0.6504120000      0.3562260000
C                 -1.6300260000      0.1335400000      0.4097690000
C                  1.2195640000      2.5789500000     -0.2015630000
C                  2.3107180000      1.7220200000      0.2353380000
C                  2.1099930000      0.4334290000      0.6917260000
C                  0.8147610000     -0.1810640000      0.7862250000
O                  1.4028510000      3.7514500000     -0.6195010000
O                  0.6585650000     -1.3582720000      1.2073510000
H                 -1.0570530000      3.7410340000     -0.8748540000
H                 -1.7493620000     -0.8804420000      0.7752090000
O                  3.5399880000      2.3312850000      0.1606080000
H                 -3.3651680000      2.8069910000     -0.7709440000
H                 -3.7196180000      0.4797370000      0.0592070000
H                  2.9354080000     -0.1933450000      1.0063200000
C                  4.7289380000      1.6097160000      0.4765090000
C                  5.7815690000      2.6666050000      0.7977900000
C                  5.1503590000      0.7093190000     -0.6877900000
H                  4.5598200000      0.9983400000      1.3716560000
H                  6.7341510000      2.1944430000      1.0582190000
H                  5.4541460000      3.2858520000      1.6357710000
H                  5.9367060000      3.3185160000     -0.0663720000
H                  6.0548150000      0.1474020000     -0.4313240000
H                  5.3569340000      1.3192900000     -1.5722390000
H                  4.3622820000     -0.0023630000     -0.9381520000


