$molecule
-2 1
C                 -0.3203160000     -2.0017840000      0.9649850000
C                 -0.2328230000     -0.9517070000     -0.1773270000
C                 -0.5587480000     -1.6511280000     -1.5291040000
C                 -1.2792560000      0.1420000000      0.0992990000
C                 -2.6356920000     -0.1880850000      0.0898600000
C                 -3.6392300000      0.7473890000      0.3787210000
C                 -3.2687630000      2.0695780000      0.6538410000
C                 -1.9317800000      2.4280610000      0.6629410000
C                 -0.9031620000      1.4751450000      0.4214790000
C                  0.4841210000      1.9168950000      0.4766250000
O                  0.7858030000      3.1172360000      0.7637360000
C                  1.5057260000      0.9427810000      0.1159090000
C                  2.8619510000      1.3686930000      0.0548850000
C                  3.8850630000      0.4885250000     -0.2527370000
C                  3.5961540000     -0.8518610000     -0.5373510000
C                  2.2578970000     -1.2698170000     -0.5293790000
C                  1.2059790000     -0.4073380000     -0.2154860000
H                  0.3939670000     -2.8147680000      0.8063800000
H                 -1.3233110000     -2.4338500000      1.0248850000
H                 -0.0933960000     -1.5295550000      1.9252420000
H                 -1.5638150000     -2.0847060000     -1.5235390000
H                 -0.5038850000     -0.9338360000     -2.3520670000
H                  0.1443630000     -2.4632280000     -1.7395660000
H                 -2.9378340000     -1.2063200000     -0.1366030000
H                 -4.6838270000      0.4475280000      0.3738830000
H                 -4.0350830000      2.8149270000      0.8607100000
H                 -1.6171040000      3.4456260000      0.8639650000
H                  3.0557990000      2.4130510000      0.2707670000
H                  4.9165690000      0.8365640000     -0.2739320000
H                  4.3878220000     -1.5577010000     -0.7743730000
H                  2.0468100000     -2.3083150000     -0.7666530000
$end
$rem
   MAX_SCF_CYCLES=200
   BASIS  =  6-311++G(d,p)
   GUI  =  2
   JOB_TYPE  =  SP
   METHOD  =  B3LYP
   SOLVENT_METHOD = COSMO
$end
$solvent
   dielectric 37.219
   opticaldielectric 1.43
$end





