%chk=244.chk
%nproc=8
%mem=30GB
#P UB3LYP/6-311++G(d,p) nosym opt freq

Oxidized

0 1
C          5.74699       -5.32462        1.22687
C          6.70305       -5.17376        0.20392
C          6.59752       -4.15155       -0.73557
C          4.66142       -4.41729        1.29582
C          4.56887       -3.39354        0.34272
C          5.53243       -3.26180       -0.66772
C          3.61164       -4.51664        2.35236
C          2.50331       -3.52123        2.35313
C          2.44968       -2.55875        1.42624
C          3.45980       -2.42289        0.36849
O          3.64070       -5.38998        3.21077
O          3.36313       -1.52277       -0.45622
C          5.93881       -6.45822        2.20033
H          7.54531       -5.86123        0.13379
C          1.45224       -3.62671        3.41760
H          1.65207       -1.82343        1.40741
H          5.45373       -2.46384       -1.40459
H          7.34502       -4.04977       -1.51896
H          6.83917       -7.03818        1.96844
H          5.09385       -7.15218        2.15312
H          6.06241       -6.07421        3.21768
H          1.62109       -4.45990        4.10565
H          0.46580       -3.77517        2.96504
H          1.42560       -2.71093        4.01808







