$molecule
-1 2
C                  1.8360960000      2.7988550000      1.3929850000
C                  0.4011150000      2.7399800000      1.1929080000
C                 -0.1958440000      1.6428260000      0.6147780000
C                  0.5915160000      0.4976970000      0.1755080000
C                  2.0415800000      0.5602030000      0.3451790000
C                  2.6228840000      1.6701220000      0.9295830000
O                  2.3768040000      3.8058470000      1.9657250000
O                  0.0442780000     -0.5139890000     -0.3456470000
C                 -0.4166070000      3.9208360000      1.6571120000
C                 -1.6879930000      1.5754250000      0.4112410000
C                  2.8268810000     -0.6327070000     -0.1317250000
S                  4.3943210000      1.6488760000      1.2453220000
C                  4.9701230000      3.3250990000      0.7275070000
C                  5.3081890000      4.2724020000      1.8994130000
C                  4.9866500000      5.7266050000      1.5755110000
O                  5.8322000000      6.5844950000      1.4304570000
O                  3.6853850000      6.0051990000      1.4543280000
H                  0.2242160000      4.6436380000      2.1601050000
H                 -1.2088270000      3.6120910000      2.3487900000
H                 -0.9100460000      4.4226760000      0.8155380000
H                 -2.0498960000      2.4140030000     -0.1956860000
H                 -2.2275120000      1.6220230000      1.3654650000
H                 -1.9455520000      0.6416180000     -0.0878760000
H                  2.2234420000     -1.2004670000     -0.8400900000
H                  3.0759300000     -1.3071690000      0.6976430000
H                  3.7713250000     -0.3273530000     -0.5876690000
H                  4.1940160000      3.7353500000      0.0853620000
H                  5.8543870000      3.1595840000      0.1084080000
H                  6.3665800000      4.2112180000      2.1550270000
H                  4.7126310000      3.9750010000      2.7638320000
H                  3.1273750000      5.1912030000      1.6287880000
$end

$rem
   BASIS  =  6-311++G(d,p)
   GUI  =  2
   JOB_TYPE  =  SP
   METHOD  =  B3LYP
   SCF_CONVERGENCE  = 8
   SOLVENT_METHOD = sm12
$end

$smx
   solvent dimethylformamide
   charges CM5
$end





