%chk=207-rad.chk
%nproc=8
%mem=30GB
#P UB3LYP/6-311++G(d,p) nosym  opt freq

Radical

-1 2
O                  4.5674240000     -1.4059110000     -0.8502390000
C                  3.4271980000     -0.6749930000     -0.5290310000
C                  3.4973680000      0.6653400000     -0.1540800000
C                  2.3294690000      1.3511880000      0.1563080000
O                  2.4184750000      2.6431390000      0.5153990000
C                  1.0688120000      0.6814040000      0.0891550000
C                 -0.1261310000      1.4412110000      0.4226720000
O                 -0.0201280000      2.6675390000      0.7612930000
C                 -1.4140580000      0.7720700000      0.3585450000
C                 -2.6333990000      1.4357010000      0.6670040000
O                 -2.6305120000      2.7604670000      1.0435950000
C                 -3.8385440000      0.7539680000      0.5912780000
C                 -3.8976060000     -0.5919560000      0.2140410000
C                 -2.7334780000     -1.2797240000     -0.0959460000
O                 -2.8217400000     -2.5754080000     -0.4559640000
C                 -1.4702000000     -0.6096630000     -0.0290160000
C                 -0.2739790000     -1.3688360000     -0.3626820000
O                 -0.3720180000     -2.5956050000     -0.7021240000
C                  1.0148320000     -0.6990510000     -0.2987710000
C                  2.2265030000     -1.3702750000     -0.6086450000
O                  2.2645330000     -2.6879950000     -0.9874690000
H                  5.3389980000     -0.8424410000     -0.7442810000
H                  4.4469670000      1.1886150000     -0.0997570000
H                  1.4435530000      2.9118840000      0.6874390000
H                 -3.5473770000      3.0078790000      1.2034090000
H                 -4.7588070000      1.2829110000      0.8321150000
H                 -4.8438750000     -1.1172500000      0.1574680000
H                 -1.8549570000     -2.8479620000     -0.6282990000
H                  3.1946810000     -2.9024440000     -1.1318160000





