%chk=065-an-PCM.chk
%nproc=8
%mem=30GB
#P UB3LYP/6-311++G(d,p) SCRF=(PCM,Solvent=n,n-DiMethylFormamide)

Reduced 

-2 1
C                 -1.3537460000     -2.0395930000      1.1747220000
C                 -1.4260640000     -1.9955420000     -0.2562120000
C                 -0.7915620000     -1.0231180000     -1.0146200000
C                 -0.0019150000      0.0316830000     -0.4331670000
C                  0.0721090000     -0.0132240000      1.0066600000
C                 -0.5616030000     -0.9844080000      1.7672830000
O                 -1.9369760000     -2.9349330000      1.8980760000
O                  0.5878890000      0.9316750000     -1.1362320000
C                 -0.5009940000     -1.0498220000      3.2679650000
O                  0.2804940000      0.0330320000      3.8227810000
C                  0.4115210000      0.1218400000      5.1616870000
C                 -0.1676580000     -0.7590630000      6.0899210000
C                  1.1948540000      1.1890300000      5.6398440000
C                  1.3903780000      1.3686530000      7.0028460000
C                  0.0443600000     -0.5657210000      7.4580300000
C                  0.8175910000      0.4910660000      7.9288040000
H                 -2.0162980000     -2.7747020000     -0.7376240000
H                 -0.8753600000     -1.0296760000     -2.1008560000
H                  0.6590860000      0.7597360000      1.4932390000
H                 -0.0670660000     -2.0051130000      3.5910200000
H                 -1.5156800000     -1.0122770000      3.6870880000
H                 -0.7778650000     -1.5847620000      5.7503070000
H                  1.6355750000      1.8617420000      4.9124650000
H                  1.9961100000      2.2015970000      7.3525400000
H                 -0.4097890000     -1.2562320000      8.1647020000
H                  0.9725380000      0.6334220000      8.9950000000





