$molecule
-2 1
C                  2.2354570000     -0.0726360000      0.0772680000
C                  0.7293830000      0.0063960000      0.0269650000
C                  0.0815080000      1.2440390000      0.0821640000
C                 -1.3410250000      1.4188320000      0.0412000000
O                 -1.9312600000      2.5763620000      0.0932040000
C                 -2.0456750000      0.1757170000     -0.0637010000
C                 -1.3683670000     -1.0452830000     -0.1168290000
Br                -2.5046640000     -2.6846670000     -0.2623740000
C                  0.0372400000     -1.2595260000     -0.0789080000
O                  0.6589620000     -2.3928380000     -0.1280580000
H                  2.5767110000     -0.6823990000      0.9267310000
H                  2.6786890000      0.9284860000      0.1581140000
H                  2.6408020000     -0.5703100000     -0.8159370000
H                  0.6819290000      2.1526550000      0.1619210000
H                 -3.1296900000      0.2051720000     -0.1017600000
$end
$rem
   MAX_SCF_CYCLES=200
   BASIS  =  6-311++G(d,p)
   GUI  =  2
   JOB_TYPE  =  SP
   METHOD  =  B3LYP
   SOLVENT_METHOD = PCM
$end
$pcm
   theory = CPCM
$end
$solvent
   dielectric 37.219
   opticaldielectric 1.43
$end





