%chk=162-rad.chk
%nproc=8
%mem=30GB
#P UB3LYP/6-311++G(d,p) nosym  opt freq SCRF=(PCM,Solvent=n,n-DiMethylFormamide)

Radical

-1 2
C                 -4.3820420000     -0.4547770000     -0.1039920000
C                 -2.8955010000     -0.7008730000     -0.1126800000
C                 -2.3921110000     -1.9896050000     -0.3134980000
C                 -1.0375520000     -2.2544550000     -0.2921500000
Cl                -0.6283590000     -3.9616820000     -0.5698750000
C                 -0.0772720000     -1.2325960000     -0.0846940000
C                  1.3696830000     -1.5083400000     -0.0458870000
O                  1.8510710000     -2.6592930000     -0.1227990000
C                  2.2615360000     -0.3525940000      0.0918290000
C                  3.6573560000     -0.5655430000      0.0995200000
C                  4.5387850000      0.4899690000      0.2200020000
C                  4.0453590000      1.8077190000      0.3410210000
C                  2.6845420000      2.0360000000      0.3384050000
C                  1.7673030000      0.9671050000      0.2152100000
C                  0.3378960000      1.2462740000      0.2251930000
O                 -0.0542510000      2.4523830000      0.3383930000
C                 -0.5780550000      0.1159610000      0.0901250000
C                 -1.9970920000      0.3539200000      0.0975360000
N                 -2.4964250000      1.6178130000      0.3555690000
H                 -4.7127610000     -0.0069810000      0.8418560000
H                 -4.6976840000      0.2280180000     -0.9063160000
H                 -4.9300760000     -1.3894510000     -0.2429080000
H                 -3.0809960000     -2.8094930000     -0.4817600000
H                  4.0043570000     -1.5876590000      0.0054300000
H                  5.6095920000      0.3089030000      0.2220400000
H                  4.7371000000      2.6394870000      0.4372680000
H                  2.2771770000      3.0353330000      0.4321830000
H                 -1.7738520000      2.3439740000      0.3250670000
H                 -3.4077280000      1.8304850000     -0.0170230000


