%chk=195-rad.chk
%nproc=8
%mem=30GB
#P UB3LYP/6-311++G(d,p) nosym opt freq

Radical

-1 2
C          5.07411       -2.84508       -0.08025
C          5.90332       -1.96211       -0.77336
C          5.38465       -0.77311       -1.28092
C          3.70918       -2.54582        0.11342
C          3.18757       -1.34963       -0.39737
C          4.03607       -0.46552       -1.09609
C          2.83029       -3.48327        0.84890
C          1.37013       -3.17997        1.06517
C          0.83830       -1.95534        0.54154
C          1.75750       -1.02280       -0.20190
C          0.49614       -4.07149        1.77513
C         -0.85264       -3.74060        1.94530
C         -0.54879       -1.66068        0.74439
C         -1.35537       -2.55463        1.43720
O          3.33054       -4.51074        1.27297
O          1.34882        0.02861       -0.66421
O          0.88581       -5.25168        2.31577
H          5.50276       -3.76225        0.30382
H          6.94934       -2.20072       -0.91677
H          6.02778       -0.08824       -1.81849
H          1.75705       -5.65413        2.31062
O         -1.17528       -0.54322        0.30518
H         -2.40163       -2.31362        1.58137
H         -0.80357        0.19214       -0.18764
H          3.65836        0.46511       -1.50075
S         -1.96125       -4.84886        2.83593
O         -3.43531       -4.47193        2.60959
O         -1.89831       -6.27098        2.25386
O         -1.73674       -4.99092        4.55019
C         -2.67584       -5.90212        5.06166
H         -2.52441       -6.91783        4.63809
H         -3.71473       -5.54075        4.90607
H         -2.52218       -5.98221        6.15723







