%chk=256-PCM.chk
%nproc=8
%mem=30GB
#P UB3LYP/6-311++G(d,p) SCRF=(PCM,Solvent=n,n-DiMethylFormamide)

Quinone PCM in DMF 

0 1
C                 -1.5521870000      2.7893590000     -0.0577920000
C                 -2.8179610000      2.2054580000     -0.0252240000
C                 -2.9237910000      0.7968180000      0.0444900000
C                 -0.3913950000      2.0154070000     -0.0236540000
C                 -0.4960600000      0.6222840000      0.0448570000
C                 -1.7594550000      0.0304060000      0.0782740000
C                  0.9428570000      2.6710660000     -0.0597520000
C                  2.1606650000      1.8024470000     -0.0219870000
C                  2.0591710000      0.4519310000      0.0429650000
C                  0.7253580000     -0.2251490000      0.0814130000
O                  1.0477210000      3.8878130000     -0.1187800000
O                  0.6475400000     -1.4439080000      0.1412200000
C                  3.4901810000      2.5033570000     -0.0596490000
C                  3.2690720000     -0.4396290000      0.0817670000
H                 -1.4471460000      3.8667950000     -0.1107330000
C                 -4.0510420000      3.0721980000     -0.0643680000
C                 -4.2725480000      0.1239680000      0.0821350000
H                  3.3509290000      3.5816910000     -0.1060150000
H                  4.0749320000      2.1864270000     -0.9292800000
H                  4.0845880000      2.2626350000      0.8276160000
H                  3.8934080000     -0.2140590000      0.9524170000
H                  3.8939840000     -0.2899790000     -0.8046560000
H                  2.9704860000     -1.4851650000      0.1270950000
H                 -1.8165670000     -1.0506210000      0.1314510000
H                 -3.7858010000      4.1290700000     -0.1118950000
H                 -4.6757580000      2.9201810000      0.8218310000
H                 -4.6746660000      2.8412400000     -0.9342590000
H                 -4.8573060000      0.4479010000      0.9492940000
H                 -4.1681660000     -0.9605260000      0.1328120000
H                 -4.8649110000      0.3650180000     -0.8066000000





