$molecule
-2 1
O                  4.6107690000      1.5369120000     -1.4456830000
C                  3.4761890000      0.9818780000     -0.8527360000
C                  2.2186440000      1.2256160000     -1.3494790000
C                  1.0829390000      0.6336010000     -0.7066140000
C                 -0.2282790000      0.8497020000     -1.1733110000
O                 -0.4167630000      1.6487740000     -2.2734800000
C                 -1.3383540000      0.2620780000     -0.5327440000
C                 -2.6829190000      0.4926960000     -1.0234790000
O                 -2.9483690000      1.2431920000     -2.0682230000
C                 -3.7591710000     -0.1098950000     -0.3577810000
O                 -5.0185270000      0.1509160000     -0.8776180000
C                 -3.5587260000     -0.9254450000      0.7660170000
O                 -4.6872030000     -1.4867740000      1.3692320000
C                 -2.2905060000     -1.1635370000      1.2564240000
C                 -1.1511870000     -0.5795490000      0.6241810000
C                  0.1573060000     -0.7970200000      1.0926390000
O                  0.3413980000     -1.5990920000      2.1956820000
C                  1.2655400000     -0.2113010000      0.4536060000
C                  2.6081610000     -0.4468440000      0.9507280000
O                  2.8847460000     -1.1961740000      1.9959160000
C                  3.6591680000      0.1618040000      0.2732670000
O                  4.9491030000     -0.0720780000      0.7619670000
H                  5.3546760000      1.2210560000     -0.9180450000
H                  2.0769850000      1.8565840000     -2.2162300000
H                 -1.4080560000      1.6551600000     -2.4155210000
H                 -4.7792020000      0.7333760000     -1.6286510000
H                 -4.3569000000     -2.0052760000      2.1095220000
H                 -2.1409320000     -1.7953380000      2.1263830000
H                  1.3308530000     -1.6082640000      2.3413840000
H                  4.7486180000     -0.6567590000      1.5226490000
$end

$rem
   BASIS  =  6-311++G(d,p)
   GUI  =  2
   JOB_TYPE  =  SP
   METHOD  =  B3LYP
   SCF_CONVERGENCE  = 8
   SOLVENT_METHOD = sm12
$end

$smx
   solvent dimethylformamide
   charges CM5
$end





