%chk=121-rad.chk
%nproc=8
%mem=30GB
#P UB3LYP/6-311++G(d,p) nosym  opt freq SCRF=(PCM,Solvent=n,n-DiMethylFormamide)

Radical

-1 2
Cl                 2.6451650000      3.2020220000     -0.4559040000
C                  2.4877420000      1.4528890000     -0.1915940000
C                  3.6889120000      0.7908330000     -0.0367030000
C                  3.7008920000     -0.5951120000      0.1913670000
C                  2.5119110000     -1.2825350000      0.2650110000
C                  1.2729320000     -0.6259910000      0.1125420000
C                  0.0666000000     -1.4611540000      0.2198830000
O                  0.1835820000     -2.7000140000      0.4073360000
C                 -1.2291200000     -0.7934030000      0.0999060000
C                 -2.4877470000     -1.4488910000      0.2215890000
Cl                -2.6491970000     -3.1780080000      0.5799770000
C                 -3.6889190000     -0.7827930000      0.0849000000
C                 -3.7008920000      0.5951490000     -0.1871860000
C                 -2.5079050000      1.2745260000     -0.3090550000
C                 -1.2689230000      0.6139370000     -0.1688100000
C                 -0.0625850000      1.4450580000     -0.3123760000
O                 -0.1795670000      2.6680010000     -0.5793850000
C                  1.2291250000      0.7853490000     -0.1321680000
H                  4.6148890000      1.3484200000     -0.0897460000
H                  4.6477670000     -1.1081750000      0.3114160000
H                  2.4942320000     -2.3488020000      0.4454150000
H                 -4.6189020000     -1.3283420000      0.1901250000
H                 -4.6477690000      1.1122460000     -0.2950670000
H                 -2.4902220000      2.3367900000     -0.5134730000





