%chk=113-an.chk
%nproc=8
%mem=30GB
#P UB3LYP/6-311++G(d,p) nosym opt freq

Reduced

-2 1
O                  1.2604880000      0.8110080000      2.2445280000
C                  0.6877410000      0.4818820000      1.1437010000
C                 -0.7358280000      0.5371550000      0.9838340000
C                 -1.4267000000      0.2691550000     -0.1947960000
N                 -2.8415450000      0.4002640000     -0.3023260000
C                 -3.5773630000      1.2879020000      0.5882630000
C                 -4.5322050000      0.5317030000      1.5245890000
C                 -5.5917440000     -0.2464750000      0.7076670000
C                 -5.0628170000     -0.5894090000     -0.7034350000
C                 -3.5525200000     -0.8236090000     -0.6986250000
C                 -0.6951780000     -0.1546530000     -1.3842680000
O                 -1.2620860000     -0.4110480000     -2.5062230000
C                  0.7235030000     -0.2768100000     -1.2056310000
C                  1.4161820000      0.0317220000     -0.0380730000
N                  2.8376010000     -0.0209000000      0.0291300000
C                  3.6163980000     -0.0884420000     -1.1893320000
C                  4.9898820000      0.5994400000     -0.9785020000
C                  5.4154440000      0.5718600000      0.5018420000
C                  4.9450890000     -0.7341790000      1.1445660000
C                  3.4019750000     -0.8441150000      1.1022580000
H                 -1.2694520000      0.8537360000      1.8756460000
H                 -4.1771110000      2.0051740000     -0.0050630000
H                 -2.8699670000      1.8871580000      1.1596340000
H                 -5.0185950000      1.2288340000      2.2203750000
H                 -3.9405530000     -0.1625850000      2.1303480000
H                 -5.8682230000     -1.1658060000      1.2388220000
H                 -6.5150190000      0.3408360000      0.6265470000
H                 -5.5767130000     -1.4742760000     -1.0993860000
H                 -5.2834440000      0.2327050000     -1.3945340000
H                 -3.1764750000     -1.1129220000     -1.6830420000
H                 -3.3215220000     -1.6542210000     -0.0013980000
H                  1.2533690000     -0.6344740000     -2.0827840000
H                  3.7692440000     -1.1373440000     -1.5255710000
H                  3.0686550000      0.4127370000     -1.9867640000
H                  5.7471130000      0.0934310000     -1.5948870000
H                  4.9430000000      1.6377190000     -1.3270720000
H                  4.9545660000      1.4110580000      1.0300740000
H                  6.5045090000      0.6890300000      0.5890390000
H                  5.2905040000     -0.8086180000      2.1820980000
H                  5.4058170000     -1.5743260000      0.6075440000
H                  3.1163420000     -1.9072300000      0.9581700000
H                  2.9476390000     -0.4930680000      2.0290620000


