$molecule
0 1
Br                 3.7335070000     -2.2105410000      0.6220850000
C                  2.2675290000     -1.0425990000      0.2855480000
C                  0.9975990000     -1.4903310000      0.3132360000
C                 -0.1594440000     -0.6372040000      0.0625750000
C                 -1.4517300000     -1.1726460000      0.1081200000
C                 -2.5606240000     -0.3626360000     -0.1304950000
C                 -2.3947310000      0.9918080000     -0.4175640000
C                 -1.1137180000      1.5371050000     -0.4658640000
C                  0.0012530000      0.7335100000     -0.2283540000
C                  1.3644250000      1.3200340000     -0.2812870000
O                  1.5800400000      2.4833130000     -0.5238250000
C                  2.5871260000      0.3726600000     -0.0064070000
O                  3.7041700000      0.8242250000     -0.0435440000
H                  0.8030460000     -2.5347730000      0.5309590000
H                 -1.5866520000     -2.2252980000      0.3309350000
H                 -3.5553080000     -0.7916630000     -0.0917400000
H                 -3.2588720000      1.6187790000     -0.6025720000
H                 -0.9576160000      2.5862570000     -0.6867050000
$end
$rem
   MAX_SCF_CYCLES=200
   BASIS  =  6-311++G(d,p)
   GUI  =  2
   JOB_TYPE  =  SP
   METHOD  =  B3LYP
   SOLVENT_METHOD = PCM
$end
$pcm
   theory = CPCM
$end
$solvent
   dielectric 37.219
   opticaldielectric 1.43
$end






