$molecule
0 1
C                 -0.9266980000      2.0953680000      0.0243730000
C                 -2.1246160000      1.2551420000     -0.0122780000
C                 -2.0833030000     -0.0823910000     -0.0782180000
C                 -0.8358350000     -0.8468660000     -0.1202410000
C                  0.4220010000     -0.0137730000     -0.0539270000
C                  0.3802160000      1.3387710000      0.0121980000
O                 -0.9788690000      3.3116420000      0.0569860000
O                 -0.8129910000     -2.0613800000     -0.2070320000
C                  1.6243350000      2.1802000000      0.0752860000
C                  1.7158180000     -0.7790360000     -0.0696360000
O                 -3.3390790000     -0.6063830000     -0.1682970000
O                 -3.4105370000      1.7071430000     -0.0543090000
C                 -4.2104310000      0.5151360000      0.0803320000
H                  2.2185280000      1.9349850000      0.9614390000
H                  1.3686590000      3.2378940000      0.1098790000
H                  2.2621570000      2.0031900000     -0.7964140000
H                  1.5257110000     -1.8496880000     -0.1229910000
H                  2.3046460000     -0.5718570000      0.8295520000
H                  2.3310140000     -0.4911490000     -0.9280950000
H                 -5.0096460000      0.5268520000     -0.6586490000
H                 -4.5941020000      0.4527930000      1.1049390000
$end
$rem
   MAX_SCF_CYCLES=200
   BASIS  =  6-311++G(d,p)
   GUI  =  2
   JOB_TYPE  =  SP
   METHOD  =  B3LYP
   SOLVENT_METHOD = PCM
$end
$pcm
   theory = CPCM
$end
$solvent
   dielectric 37.219
   opticaldielectric 1.43
$end





