%chk=208-an.chk
%nproc=8
%mem=30GB
#P UB3LYP/6-311++G(d,p) nosym opt freq

Reduced

-2 1
O                  4.6105880000      1.5364170000     -1.4464910000
C                  3.4763480000      0.9812030000     -0.8532400000
C                  2.2185750000      1.2251370000     -1.3495260000
C                  1.0830390000      0.6334550000     -0.7065630000
C                 -0.2282450000      0.8493360000     -1.1735730000
O                 -0.4164090000      1.6486370000     -2.2733230000
C                 -1.3383230000      0.2623280000     -0.5325240000
C                 -2.6830610000      0.4931530000     -1.0230870000
O                 -2.9484800000      1.2441650000     -2.0674280000
C                 -3.7592640000     -0.1100640000     -0.3580070000
O                 -5.0185130000      0.1507330000     -0.8779560000
C                 -3.5587040000     -0.9258550000      0.7656890000
O                 -4.6870810000     -1.4876090000      1.3686630000
C                 -2.2905250000     -1.1637170000      1.2561860000
C                 -1.1511030000     -0.5793230000      0.6243860000
C                  0.1572970000     -0.7968930000      1.0927680000
O                  0.3414030000     -1.5989440000      2.1961840000
C                  1.2656790000     -0.2108740000      0.4541530000
C                  2.6080620000     -0.4464340000      0.9509710000
O                  2.8848780000     -1.1948070000      1.9969410000
C                  3.6593010000      0.1609050000      0.2725580000
O                  4.9489940000     -0.0731240000      0.7613560000
H                  5.3548160000      1.2216630000     -0.9186720000
H                  2.0768760000      1.8567090000     -2.2158490000
H                 -1.4076870000      1.6558570000     -2.4152660000
H                 -4.7793500000      0.7336730000     -1.6287380000
H                 -4.3567890000     -2.0061040000      2.1089940000
H                 -2.1410810000     -1.7953910000      2.1262800000
H                  1.3308190000     -1.6077580000      2.3422960000
H                  4.7479410000     -0.6564760000      1.5228190000


