$molecule
-4 1
C                  5.5864650000     -4.7969380000      0.7983030000
C                  6.6360030000     -4.6621270000     -0.0873510000
C                  6.5969000000     -3.6266750000     -1.0392760000
C                  4.4788530000     -3.9277770000      0.7620770000
C                  4.4031090000     -2.9044300000     -0.2395030000
C                  5.5184560000     -2.7572800000     -1.1358940000
C                  3.4353900000     -4.1722820000      1.8031930000
C                  2.2744820000     -3.2691580000      1.8339260000
C                  2.1619820000     -2.2973070000      0.7856280000
C                  3.1794010000     -2.0892530000     -0.2886690000
C                  1.2380380000     -3.3058170000      2.8307040000
C                  0.1513520000     -2.4479920000      2.7238360000
C                  0.0241610000     -1.5359950000      1.6599080000
C                  1.0255630000     -1.4685530000      0.7129270000
O                  3.5672360000     -5.1219220000      2.5927700000
O                  2.9634520000     -1.2573270000     -1.1852720000
S                  1.1451480000     -4.3890090000      4.3675710000
O                 -0.0698530000     -3.8669810000      5.0882280000
O                  2.3805400000     -4.1452490000      5.1584100000
O                  0.9317960000     -5.7909090000      3.9159510000
S                  5.7607930000     -1.4651060000     -2.4833370000
O                  7.1642690000     -1.7232460000     -2.9647250000
O                  4.7714170000     -1.7476480000     -3.5585390000
O                  5.6542270000     -0.1280730000     -1.8414380000
H                  5.5777570000     -5.5660140000      1.5605980000
H                  7.4891230000     -5.3451190000     -0.0537580000
H                  7.4210960000     -3.4828660000     -1.7245240000
H                 -0.6057160000     -2.4977220000      3.4945180000
H                 -0.8563560000     -0.8914360000      1.5915180000
H                  0.9832140000     -0.7708590000     -0.1141600000
$end
$rem
   MAX_SCF_CYCLES=200
   BASIS  =  6-311++G(d,p)
   GUI  =  2
   JOB_TYPE  =  SP
   METHOD  =  B3LYP
   SOLVENT_METHOD = PCM
$end
$pcm
   theory = CPCM
$end
$solvent
   dielectric 37.219
   opticaldielectric 1.43
$end






