%chk=112-rad.chk
%nproc=8
%mem=30GB
#P UB3LYP/6-311++G(d,p) nosym  opt freq

Radical

-1 2
O                  2.5425450000     -0.9970870000     -0.2523720000
C                  1.3170630000     -0.4440790000     -0.1248550000
C                  1.0986830000      0.9049870000     -0.0016020000
Cl                 2.4487610000      2.0311280000     -0.0027210000
C                 -0.2285750000      1.4259410000      0.1300870000
O                 -0.5573610000      2.6409310000      0.2491200000
C                 -1.3167220000      0.4441530000      0.1249880000
C                 -1.0985280000     -0.9051890000      0.0017250000
Cl                -2.4488950000     -2.0309100000      0.0026940000
C                  0.2285040000     -1.4261190000     -0.1298500000
O                  0.5572670000     -2.6410930000     -0.2494810000
O                 -2.5422670000      0.9971520000      0.2525250000
H                  2.3260310000     -1.9554680000     -0.3143450000
H                 -2.3265050000      1.9556540000      0.3140880000


