$molecule
-1 2
N                 -2.0460950000      2.8994570000     -0.2060540000
C                 -2.0583260000      1.5179530000     -0.0002210000
C                 -3.2815240000      0.8560320000      0.0928510000
C                 -3.3519780000     -0.5311790000      0.2057620000
C                 -2.2023120000     -1.3191130000      0.2304300000
N                 -2.3304180000     -2.7095050000      0.2500400000
C                 -0.9198640000     -0.6840690000      0.1878620000
C                  0.2914540000     -1.4876450000      0.3125560000
O                  0.2791380000     -2.7509880000      0.4524280000
C                  1.5709650000     -0.7863260000      0.2886490000
C                  2.7698740000     -1.5274040000      0.3896790000
C                  3.9992760000     -0.9002140000      0.3757380000
C                  4.0707040000      0.5062180000      0.2616120000
C                  2.9108320000      1.2479960000      0.1644430000
C                  1.6426060000      0.6248020000      0.1741300000
C                  0.4403780000      1.4459510000      0.0743560000
O                  0.5563350000      2.7100650000      0.0092740000
C                 -0.8466730000      0.7587270000      0.0706150000
H                 -1.1187170000      3.3019370000     -0.0579210000
H                 -2.8228240000      3.3932460000      0.2081910000
H                 -4.1976950000      1.4390160000      0.0427630000
H                 -4.3225580000     -1.0193560000      0.2430210000
H                 -3.1510110000     -3.0504590000      0.7284830000
H                 -1.4472730000     -3.1749000000      0.4676050000
H                  2.6834610000     -2.6038200000      0.4775700000
H                  4.9110000000     -1.4856200000      0.4519920000
H                  5.0372980000      1.0014980000      0.2501120000
H                  2.9339460000      2.3277000000      0.0773620000
$end
$rem
   MAX_SCF_CYCLES=200
   BASIS  =  6-311++G(d,p)
   GUI  =  2
   JOB_TYPE  =  SP
   METHOD  =  B3LYP
   SOLVENT_METHOD = PCM
$end
$pcm
   theory = CPCM
$end
$solvent
   dielectric 37.219
   opticaldielectric 1.43
$end





