%chk=192-opt-pro.chk
%nproc=8
%mem=30GB
#P UB3LYP/6-311++G(d,p) nosym opt freq

Oxidized

-1 1
C                  5.61418492   -3.83724047   -2.51357901
 O                  4.80753992   -2.91890247   -1.80862901
 C                  5.37698792   -2.14859747   -0.83788801
 C                  6.72497492   -2.24730647   -0.52320801
 C                  7.28374692   -1.43799447    0.48375799
 C                  6.49753492   -0.53985047    1.16570099
 C                  5.12453992   -0.41667547    0.87016499
 C                  4.36840992    0.58058853    1.65742499
 O                  4.96117892    1.26190053    2.51678199
 C                  2.93737892    0.70775653    1.36578599
 C                  2.10372892    1.62933753    2.05480599
 O                  2.66401192    2.43184253    3.02325899
 C                  0.74682692    1.74952653    1.75483799
 C                 -0.08169808    2.83674353    2.41047599
 C                 -1.25516408    3.25649253    1.52782699
 O                 -2.00062408    4.24220153    2.27752599
 C                 -2.10778108    2.03183953    1.22676099
 C                 -1.33613808    0.92429653    0.49370499
 O                 -1.95199008   -0.33759547    0.89099199
 C                 -2.54696808   -1.07253247   -0.11536101
 C                 -2.73891608   -2.50562447    0.36289999
 C                 -3.55593408   -3.33742847   -0.65104301
 N                 -2.81936408   -3.73752947   -1.86433601
 C                 -4.83665708   -2.57121047   -1.05215401
 O                 -5.75835308   -2.51897547    0.04021399
 C                 -4.47992708   -1.15014147   -1.51757601
 C                 -5.67402608   -0.31343347   -1.95015701
 O                 -3.83656608   -0.47850047   -0.42606901
 C                  0.14604292    0.89730253    0.79658499
 C                  0.94590792    0.00094053    0.08631899
 O                  0.37555292   -0.76300347   -0.86264801
 C                  2.34684092   -0.10874447    0.35055599
 C                  3.11207892   -1.07516847   -0.42449901
 O                  2.51865292   -1.77051147   -1.32617001
 C                  4.52792692   -1.22135947   -0.14284401
 C                 -0.83863108    4.00038253    0.23650599
 O                 -1.55633208    3.98970753   -0.74618901
 C                  0.41590192    4.85448753    0.22281099
 O                  0.49512092    5.63112853   -0.95015001
 H                  4.94835392   -4.32563847   -3.22543601
 H                  6.05034592   -4.59466447   -1.84937501
 H                  6.42307092   -3.33671047   -3.06141901
 H                  7.35999292   -2.94680547   -1.04911201
 H                  8.34063692   -1.53122647    0.71344499
 H                  6.89612792    0.09840053    1.94331699
 H                  1.95651292    2.81573253    3.54833499
 H                  0.52803592    3.71872053    2.63233899
 H                 -0.51719808    2.51450353    3.36600199
 H                 -2.83822708    4.38535453    1.82059099
 H                 -2.99156808    2.30290053    0.64456699
 H                 -2.44612108    1.63260753    2.18638299
 H                 -1.47585308    1.02951653   -0.58529901
 H                 -1.93714008   -1.02944647   -1.02605501
 H                 -1.75829308   -2.95903147    0.52750099
 H                 -3.25132808   -2.47068347    1.33025899
 H                 -3.88681008   -4.26028247   -0.16697601
 H                 -2.26924908   -2.96865247   -2.23552401
 H                 -2.15167408   -4.46696247   -1.63588601
 H                 -5.33374308   -3.12147147   -1.85388201
 H                 -5.45172308   -1.81674147    0.62880199
 H                 -3.77635108   -1.22527647   -2.36079801
 H                 -6.16996908   -0.77812947   -2.80710701
 H                 -5.34303608    0.68686053   -2.23733101
 H                 -6.40092508   -0.22356847   -1.14095001
 H                  1.13302750   -1.28683694   -1.21426201
 H                  0.40972592    5.50829953    1.10288099
 H                  1.28443392    4.18744953    0.31421699
 H                 -0.21451408    5.30886953   -1.52789401
 H                 -1.82044412   -4.02810255   -1.73526589







































