%chk=284-rad.chk
%nproc=8
%mem=30GB
#P UB3LYP/6-311++G(d,p) nosym opt freq

Radical

-1 2
C         -0.18245        3.97547        0.08399
C         -1.26178        3.47368        0.81483
C         -1.34029        2.10979        1.09878
C          0.83100        3.11108       -0.36993
C          0.75256        1.73753       -0.08433
C         -0.33975        1.24306        0.65288
C          1.98282        3.62376       -1.14560
C          3.05180        2.69711       -1.62052
C          2.98528        1.36026       -1.34819
C          1.82359        0.83177       -0.56511
O          2.06115        4.81703       -1.40018
O          1.75596       -0.36434       -0.31712
H         -0.14052        5.03700       -0.12552
H         -2.03829        4.14334        1.16147
H         -2.17765        1.72325        1.66535
H         -0.42039        0.18838        0.88442
O          4.08342        3.21523       -2.32472
C          4.01992        0.31267       -1.78067
C          5.24370        0.77786       -2.58571
C          6.16087       -0.40574       -2.92159
C          7.38407        0.05693       -3.72246
C          8.30065       -1.12569       -4.05643
C          9.51989       -0.66892       -4.85228
H          4.15974        4.15637       -2.53412
H          3.48536       -0.44820       -2.39093
H          4.39425       -0.18216       -0.85756
H          5.82356        1.51228       -1.98492
H          4.90570        1.24232       -3.53785
H          5.59318       -1.15337       -3.51867
H          6.50182       -0.88608       -1.97780
H          7.95240        0.80420       -3.12554
H          7.04475        0.53660       -4.66717
H          7.74013       -1.87511       -4.65690
H          8.64625       -1.60791       -3.11599
H          9.20319       -0.20169       -5.80909
H         10.16489       -1.54367       -5.07974
H         10.11082        0.06586       -4.26488







