%chk=252.chk
%nproc=8
%mem=30GB
#P UB3LYP/6-311++G(d,p) nosym opt freq Int=Acc2E=11

Oxidized

0 1
 C                 -3.72137200    5.68034500    3.09715100
 C                 -2.71333200    6.31246800    3.82547700
 C                 -2.20659800    5.71788100    4.98806800
 C                 -4.22749500    4.44847000    3.52865500
 C                 -3.71840800    3.85179300    4.69480300
 C                 -2.70729800    4.49040600    5.42244100
 C                 -5.30749900    3.77620200    2.75152600
 C                 -5.83337800    2.46104000    3.23804100
 C                 -5.32076300    1.87342600    4.35259300
 C                 -4.25122000    2.53912100    5.15636000
 O                 -5.75714200    4.28906700    1.72903700
 O                 -3.82309400    2.00960800    6.18060800
 H                 -2.32149000    7.26872000    3.48898400
 H                 -1.42147700    6.21262800    5.55374900
 C                 -6.93462400    1.83836800    2.42013500
 H                 -4.12791100    6.12463200    2.19412300
 H                 -2.32849700    4.01242600    6.32035100
 H                 -6.56471100    0.96668300    1.86288400
 H                 -7.31989000    2.55632700    1.69407400
 H                 -7.75343900    1.49608900    3.06099900
 C                 -5.80676000    0.53680500    4.87768600
 C                 -6.95316000    0.69760400    5.85599300
 C                 -8.13348900    0.05236000    5.87197200
 C                 -9.13685800    0.34419500    6.97270100
 C                 -9.36493400   -0.83645300    7.95286900
 C                -10.40344600   -0.51509400    8.99542900
 C                -10.25738400   -0.39878000   10.32822500
 C                 -8.55799500   -0.99206400    4.86460600
 C                -11.45385300   -0.05181100   11.19536200
 C                -11.37915500    1.35118400   11.85344300
 C                -12.56746200    1.62714200   12.73678600
 C                -13.52259000    2.56591100   12.60370500
 C                 -8.95565600   -0.60481600   11.06921200
 C                -13.56685500    3.59191100   11.49381700
 C                -14.64840400    2.65376900   13.61796400
 C                -16.04284900    2.26813000   13.05758300
 C                -17.13103000    2.42062700   14.08767000
 C                -17.91528200    1.47569500   14.63841800
 C                -17.86314400    0.00627400   14.28563900
 C                -18.95026900    1.85977900   15.68020000
 C                -18.64323700    1.33611900   17.10807500
 C                -19.72461500    1.70101500   18.09092100
 C                -19.65368200    2.50029100   19.17138400
 C                -18.39675100    3.19774200   19.64043300
 C                -20.88856800    2.74136700   20.02051900
 C                -21.44333700    4.18824500   19.94195800
 C                -22.63503200    4.38933300   20.84078600
 C                -23.90723400    4.67798700   20.50991400
 C                -24.39726500    4.89116300   19.09537700
 C                -24.95971900    4.82500600   21.59369100
 C                -26.03667200    3.70856800   21.59357900
 C                -27.08380300    3.92908000   22.65341100
 C                -27.37852200    3.16477600   23.72009700
 C                -26.69042700    1.86696500   24.07299800
 C                -28.47427500    3.56746400   24.68136800
 H                 -4.96910400    0.05707500    5.39844500
 H                 -6.08549600   -0.10854400    4.04099900
 H                 -6.75908600    1.41856100    6.65069300
 H                -10.10479800    0.61152100    6.52016300
 H                 -8.80945200    1.21707800    7.55000200
 H                 -8.40510000   -1.10699200    8.40548000
 H                 -9.69997100   -1.71532000    7.38302300
 H                -11.40447800   -0.34645200    8.59029300
 H                 -7.89216900   -1.05322400    3.99985500
 H                 -9.57147400   -0.78326200    4.49513700
 H                 -8.59091800   -1.99156300    5.31887200
 H                -11.55575700   -0.80381500   11.99372700
 H                -12.37183400   -0.10539800   10.59740900
 H                -11.27621800    2.10375300   11.06448600
 H                -10.46629900    1.41251500   12.46351800
 H                -12.65208100    0.95286300   13.59289800
 H                 -8.14060400   -0.93592400   10.42131500
 H                 -9.08007300   -1.35609200   11.86202900
 H                 -8.62685700    0.31890100   11.56396100
 H                -12.69536900    3.54963300   10.83616300
 H                -13.62223600    4.60728700   11.91153100
 H                -14.45897400    3.46421300   10.86598800
 H                -14.70540900    3.68088200   14.01179200
 H                -14.42728400    2.00364200   14.47327100
 H                -15.99357100    1.24604500   12.66729500
 H                -16.27684200    2.91745700   12.20147000
 H                -17.28026900    3.44819700   14.42909200
 H                -17.16284800   -0.21576100   13.47686200
 H                -18.85618100   -0.34983300   13.97630400
 H                -17.56941700   -0.60286900   15.15107800
 H                -19.93596300    1.47457600   15.37464200
 H                -19.04247500    2.95185400   15.72470500
 H                -17.66549600    1.71890200   17.41934000
 H                -18.55302100    0.24060200   17.07626500
 H                -20.69670400    1.25249000   17.87034800
 H                -17.51596200    2.93778000   19.04844800
 H                -18.18384500    2.94173500   20.68816900
 H                -18.50731200    4.28984100   19.60294200
 H                -20.65743800    2.51556000   21.07355200
 H                -21.68465700    2.04897800   19.72057800
 H                -21.67940500    4.41666500   18.89723400
 H                -20.65361900    4.89154500   20.24372000
 H                -22.41568400    4.26887900   21.90479400
 H                -23.59442500    4.86226100   18.35480700
 H                -24.90073000    5.86435700   19.00598900
 H                -25.13613100    4.13066500   18.80886000
 H                -25.46767500    5.79577500   21.47951300
 H                -24.47693800    4.84004800   22.57847200
 H                -25.53961000    2.73964600   21.71094300
 H                -26.53049800    3.68666400   20.61116700
 H                -27.66402300    4.84630100   22.52521100
 H                -25.89113400    1.59604700   23.37895000
 H                -27.41335300    1.03867700   24.09278000
 H                -26.25544900    1.92310400   25.08115300
 H                -28.94728900    4.51144000   24.39038000
 H                -28.08194500    3.68359600   25.70213300
 H                -29.25707200    2.79682000   24.73414800
















