%chk=127-rad-PCM.chk
%nproc=8
%mem=30GB
#P UB3LYP/6-311++G(d,p) SCRF=(PCM,Solvent=n,n-DiMethylFormamide)

Radical PCM in DMF 

-1 2
C                 -2.9597210000     -2.0551890000     -0.0357990000
C                 -2.3313840000     -0.6781440000     -0.0489020000
C                 -3.1883410000      0.4065900000     -0.0968780000
C                 -2.7116480000      1.7246430000     -0.1130340000
C                 -1.3587620000      2.0111430000     -0.0820110000
C                 -0.9609060000      3.4714150000     -0.1037800000
C                 -0.4269470000      0.9235390000     -0.0319180000
C                  1.0158090000      1.2032680000      0.0016040000
O                  1.4859810000      2.3708900000     -0.0113810000
C                  1.9237200000      0.0574540000      0.0518110000
C                  3.3183490000      0.2830350000      0.0846750000
C                  4.2097360000     -0.7696300000      0.1322690000
C                  3.7292100000     -2.0981790000      0.1487900000
C                  2.3703600000     -2.3379550000      0.1173070000
C                  1.4423840000     -1.2733520000      0.0684120000
C                  0.0112150000     -1.5742210000      0.0363440000
O                 -0.3743010000     -2.7724000000      0.0532850000
C                 -0.9191160000     -0.4372640000     -0.0150470000
H                 -2.6796230000     -2.6222940000      0.8535120000
H                 -2.6298450000     -2.6615100000     -0.8810570000
H                 -4.0504650000     -1.9533120000     -0.0693540000
H                 -4.2603580000      0.2306440000     -0.1227430000
H                 -3.4233690000      2.5449190000     -0.1510500000
H                 -0.3270920000      3.7081240000     -0.9600440000
H                 -0.3748090000      3.7470700000      0.7745170000
H                 -1.8647370000      4.0901200000     -0.1426000000
H                  3.6557740000      1.3127020000      0.0709280000
H                  5.2787820000     -0.5788030000      0.1570160000
H                  4.4290750000     -2.9280480000      0.1862150000
H                  1.9710290000     -3.3452560000      0.1289160000





