%chk=346.chk
%nproc=8
%mem=30GB
#P UB3LYP/6-311++G(d,p) nosym opt freq

Oxidized

0 1
O                 -0.1317900000      0.0729060000      2.2366500000
C                 -0.4904450000      0.3567860000      1.1086390000
C                 -1.8341410000      0.0137720000      0.5721590000
C                 -2.7291470000     -0.6647850000      1.4135240000
C                 -3.9829860000     -1.0359690000      0.9475600000
C                 -4.3556690000     -0.7375210000     -0.3654190000
C                 -3.4716600000     -0.0665890000     -1.2085270000
C                 -2.2145470000      0.3106140000     -0.7440970000
C                  0.4832370000      1.1799610000      0.2388070000
O                  0.1203010000      2.2867350000     -0.1147130000
C                  1.8312310000      0.6307830000     -0.0650650000
C                  2.7242310000      1.4334210000     -0.7915190000
C                  3.9819550000      0.9523610000     -1.1287450000
C                  4.3606340000     -0.3374010000     -0.7479990000
C                  3.4787460000     -1.1420850000     -0.0288240000
C                  2.2177150000     -0.6622570000      0.3144950000
H                 -2.4195720000     -0.8886290000      2.4271940000
H                 -4.6721520000     -1.5570950000      1.6021840000
H                 -5.3351660000     -1.0277220000     -0.7290300000
H                 -3.7628140000      0.1679520000     -2.2258090000
H                 -1.5404650000      0.8477750000     -1.3984790000
H                  2.4099780000      2.4294320000     -1.0790360000
H                  4.6695000000      1.5771960000     -1.6872530000
H                  5.3431300000     -0.7128520000     -1.0117880000
H                  3.7745910000     -2.1411250000      0.2696020000
H                  1.5453050000     -1.2856660000      0.8892740000


