$molecule
-2 1
C                 -1.5566670000     -1.5435210000     -0.6384990000
C                 -1.1624990000     -0.1329380000     -0.1341440000
C                 -1.5480270000     -0.0055560000      1.3607230000
C                 -1.9975720000      0.8956770000     -0.9217130000
C                  0.3612210000      0.0639030000     -0.2925250000
C                  0.8759080000      1.0912200000     -1.0871790000
C                  2.2624140000      1.3789330000     -1.3154900000
O                  2.6676760000      2.3480720000     -2.0633960000
C                  3.1094670000      0.4650210000     -0.6150860000
C                  2.6178940000     -0.5783450000      0.1917440000
Cl                 3.7635210000     -1.6735150000      1.0282500000
C                  1.2331170000     -0.8547790000      0.4111970000
O                  0.8077130000     -1.8255370000      1.1603360000
Cl                 4.8748680000      0.7092180000     -0.8093640000
H                 -0.9610760000     -2.2872970000     -0.1042840000
H                 -2.6293230000     -1.7351500000     -0.4733000000
H                 -1.3555330000     -1.6280270000     -1.7129610000
H                 -0.9524030000     -0.7153700000      1.9392620000
H                 -2.6207900000     -0.2096870000      1.5091130000
H                 -1.3405760000      1.0104000000      1.7168880000
H                 -3.0663140000      0.6953330000     -0.7624430000
H                 -1.7984110000      0.8416190000     -1.9966060000
H                 -1.7916640000      1.9198970000     -0.5952050000
H                  0.2070570000      1.7704280000     -1.6069090000
$end
$rem
   MAX_SCF_CYCLES=200
   BASIS  =  6-311++G(d,p)
   GUI  =  2
   JOB_TYPE  =  SP
   METHOD  =  B3LYP
   SOLVENT_METHOD = COSMO
$end
$solvent
   dielectric 37.219
   opticaldielectric 1.43
$end





