$molecule
-2 1
C                 -1.7884430000     -3.7300970000      1.2876370000
C                 -0.4173630000     -3.9348370000      1.0667330000
C                  0.4350520000     -2.9030240000      0.6037950000
C                 -0.0162180000     -1.5825980000      0.3212910000
C                 -1.4320960000     -1.3640330000      0.5531320000
C                 -2.2390070000     -2.4024410000      1.0062600000
O                 -2.7007240000     -4.5996060000      1.7208340000
O                  0.7558690000     -0.6218130000     -0.1123750000
O                 -3.6053460000     -2.2519370000      1.2422470000
C                 -1.9964480000      0.0094220000      0.2991750000
H                 -0.0077510000     -4.9283140000      1.2621780000
H                  1.4945910000     -3.1079190000      0.4432790000
H                 -1.2845340000      0.7717730000      0.6396860000
H                 -2.9613430000      0.1412660000      0.8011170000
H                 -2.1488680000      0.2076140000     -0.7768290000
H                 -3.7870290000     -3.1845730000      1.5479710000
$end
$rem
   MAX_SCF_CYCLES=200
   BASIS  =  6-311++G(d,p)
   GUI  =  2
   JOB_TYPE  =  SP
   METHOD  =  B3LYP
   SOLVENT_METHOD = COSMO
$end
$solvent
   dielectric 37.219
   opticaldielectric 1.43
$end





