%chk=079-rad.chk
%nproc=8
%mem=30GB
#P UB3LYP/6-311++G(d,p) nosym  opt freq

Radical

-1 2
C          1.25032        1.23543       -2.85457
C         -0.09868        1.61223       -3.30953
C         -1.14473        0.81292       -3.10205
C         -1.00069       -0.48105       -2.41253
C          0.35210       -0.87455       -1.92530
O          2.19320        1.98500       -3.07448
O         -1.98258       -1.19809       -2.26366
H         -0.19247        2.56629       -3.81488
C          1.40303       -0.05986       -2.14527
C          2.73544       -0.43476       -1.60144
C          3.88045       -0.59621       -2.54011
C          5.17757       -0.53575       -2.01255
C          3.70496       -0.84915       -3.90737
C          6.28595       -0.70374       -2.84423
C          6.10512       -0.94210       -4.20527
C          4.81783       -1.01703       -4.73598
O          2.88369       -0.61656       -0.39552
C          0.39160       -2.20823       -1.23027
H          5.32991       -0.35224       -0.95038
H          2.71795       -0.92796       -4.35180
H          7.28909       -0.64797       -2.42871
H          6.96903       -1.07135       -4.85289
H          4.68172       -1.20777       -5.79791
H         -2.14390        1.07580       -3.42991
H         -0.11031       -2.14297       -0.25938
H          1.40539       -2.58109       -1.06284
H         -0.11658       -2.97004       -1.83205












