%chk=141.chk
%nproc=8
%mem=30GB
#P UB3LYP/6-311++G(d,p) nosym opt freq SCRF=(PCM,Solvent=n,n-DiMethylFormamide)

Oxidized

0 1
C                 -3.2897930000      3.6092040000      0.0843370000
C                 -4.5210270000      2.9655340000      0.0899110000
C                 -4.5693120000      1.5636990000      0.0667850000
C                 -2.0957690000      2.8858660000      0.0560920000
C                 -2.1535830000      1.4765610000      0.0330030000
C                 -3.3805980000      0.8268500000      0.0383960000
C                 -0.8038100000      3.6133170000      0.0511390000
C                  0.4449080000      2.7871670000      0.0202410000
C                  0.3870940000      1.3778610000     -0.0028430000
C                 -0.9048620000      0.6504060000      0.0023740000
C                  1.6719200000      3.4368810000      0.0146140000
C                  2.8606270000      2.7000310000     -0.0140070000
C                  2.8123450000      1.2981980000     -0.0371330000
C                  1.5811140000      0.6545250000     -0.0313290000
O                 -0.7519040000      4.8338880000      0.0709080000
O                 -0.9567740000     -0.5701570000     -0.0178730000
H                 -3.4160950000     -0.2548970000      0.0205420000
H                  1.5272890000     -0.4271840000     -0.0489520000
H                 -3.2359670000      4.6909130000      0.1019640000
H                  1.7074180000      4.5186270000      0.0324710000
O                  4.0056880000      3.4266460000     -0.0173050000
O                 -5.7143690000      0.8370720000      0.0698670000
C                 -6.9656170000      1.5178280000      0.0966710000
C                  5.2569060000      2.7458470000     -0.0443370000
H                 -5.4283190000      3.5538570000      0.1120660000
H                  3.7196380000      0.7098810000     -0.0594660000
H                 -7.7244010000      0.7378000000      0.0928670000
H                 -7.0917200000      2.1522980000     -0.7864180000
H                 -7.0697980000      2.1221880000      1.0034290000
H                  6.0157160000      3.5258500000     -0.0406600000
H                  5.3609040000      2.1414900000     -0.9511180000
H                  5.3831410000      2.1113650000      0.8387260000


