$molecule
-1 2
C                 -3.03768400    1.85362700    0.33486100
 C                 -3.98389800    1.53992200   -0.70254700
 C                 -3.96274000    0.33386300   -1.33242100
 C                 -3.01122600   -0.71092000   -1.01705400
 C                 -2.02567400   -0.42277200    0.03855700
 C                 -2.05029900    0.82077700    0.66989400
 O                 -3.05675800    2.96869800    0.93397100
 O                 -3.07641500   -1.80090100   -1.65855500
 C                 -1.10721200    1.27398500    1.76263400
 C                 -0.99585100   -1.50993600    0.48467700
 C                  0.45367300   -1.00833800    0.30831600
 C                  0.79923000   -0.26816400   -0.83156700
 C                  1.48609100   -1.35236200    1.19042600
 C                  2.80538500   -0.96149100    0.95534700
 C                  2.11391600    0.12039100   -1.07364000
 C                  3.12866800   -0.22116900   -0.17885000
 H                 -4.71137300    2.30709100   -0.95330900
 H                 -4.67327200    0.08680100   -2.11621500
 H                 -1.61779500    1.27730000    2.73422300
 H                 -0.82756200    2.31413600    1.57996400
 H                 -0.20510200    0.67585800    1.84765000
 H                  0.01714600    0.01615300   -1.52581400
 H                  1.26465300   -1.92333300    2.08418200
 H                  3.57971700   -1.23466100    1.66594300
 H                  2.34554600    0.69896600   -1.96243600
 C                 -1.32646600   -1.91568900    1.94552300
 H                 -2.37082000   -2.23420400    1.98502100
 H                 -0.71428600   -2.76225500    2.27496500
 H                 -1.19948500   -1.09987200    2.65641900
 C                 -1.01718200   -2.84539200   -0.31953600
 H                 -1.97782100   -3.34939400   -0.23081300
 H                 -0.83029400   -2.69298300   -1.38015000
 H                 -0.22843300   -3.48923200    0.09004100
 H                  4.15260800    0.08784700   -0.36210900
$end
$rem
   MAX_SCF_CYCLES=200
   BASIS  =  6-311++G(d,p)
   GUI  =  2
   JOB_TYPE  =  SP
   METHOD  =  B3LYP
   SOLVENT_METHOD = COSMO
$end
$solvent
   dielectric 37.219
   opticaldielectric 1.43
$end





