$molecule
-2 1
C                 -3.2595260000      3.4237230000      0.3982160000
C                 -4.4786650000      2.7891960000      0.4338090000
C                 -4.5546420000      1.3739130000      0.4974900000
C                 -2.0439360000      2.6930110000      0.4146720000
C                 -2.1091800000      1.2501010000      0.4625980000
C                 -3.3858880000      0.6405790000      0.5120610000
C                 -0.7874090000      3.4188500000      0.3762350000
C                  0.3987700000      2.5821180000      0.3814270000
C                  0.3341880000      1.1391750000      0.4292520000
C                 -0.9226270000      0.4128830000      0.4721770000
C                  1.6747170000      3.1996260000      0.3312090000
C                  2.8318180000      2.4571270000      0.3344790000
C                  2.7808490000      1.0406880000      0.3976190000
C                  1.5512470000      0.4163400000      0.4446860000
O                 -0.7302110000      4.6940690000      0.3285540000
O                 -0.9798430000     -0.8622830000      0.5197930000
H                 -3.4046710000     -0.4433120000      0.5648720000
H                  1.4730540000     -0.6648540000      0.4981850000
H                 -3.1930470000      4.5060260000      0.3652250000
H                  1.7058540000      4.2835390000      0.2988470000
O                  4.0863840000      3.0878950000      0.3216240000
C                  4.6067310000      3.3107410000     -0.9806040000
O                 -5.6708480000      3.5310160000      0.4537690000
H                  3.7079110000      0.4742110000      0.4197040000
H                  5.5907350000      3.7791230000     -0.8650420000
H                  3.9569240000      3.9784580000     -1.5616890000
H                  4.7255180000      2.3688100000     -1.5356600000
C                 -6.2023250000      3.8033290000     -0.8344850000
H                 -5.5283230000      0.8938390000      0.5454260000
H                 -7.1365970000      4.3585140000     -0.6933680000
H                 -6.4201010000      2.8773760000     -1.3864100000
H                 -5.5099730000      4.4109650000     -1.4321130000
$end
$rem
   MAX_SCF_CYCLES=200
   BASIS  =  6-311++G(d,p)
   GUI  =  2
   JOB_TYPE  =  SP
   METHOD  =  B3LYP
   SOLVENT_METHOD = PCM
$end
$pcm
   theory = CPCM
$end
$solvent
   dielectric 37.219
   opticaldielectric 1.43
$end





