%chk=068-rad.chk
%nproc=8
%mem=30GB
#P UB3LYP/6-311++G(d,p) nosym  opt freq

Radical

-1 2
C         -0.13271        2.12406       -0.77254
C         -1.07543        1.99265        0.34799
C         -1.11600        0.86910        1.05579
C         -0.21181       -0.23859        0.72430
C          0.99011        0.03766       -0.11465
C          1.01958        1.18578       -0.82914
O         -0.36555        2.98996       -1.60299
O         -0.47417       -1.35025        1.16119
S          2.26600        1.63599       -1.95559
C          3.84303        1.33791       -1.17347
C          4.18306        2.07245       -0.02999
C          4.78811        0.52319       -1.80390
C          6.07337        0.42263       -1.27073
C          5.46973        1.96279        0.49857
C          6.41239        1.13996       -0.12156
O          2.29310        3.08077       -2.11501
O          2.18061        0.79744       -3.13595
H         -1.77559        2.80569        0.50371
H         -1.85064        0.69789        1.83410
H          3.48057        2.76976        0.41967
H          4.53797       -0.02107       -2.71328
H          6.81350       -0.20796       -1.75817
H          5.75156        2.54014        1.37615
H          7.41929        1.06608        0.28335
C          2.02865       -1.04069       -0.21214
O          2.37666       -1.39479       -1.33932
C          2.62719       -1.72659        1.05210
C          2.44503       -0.93586        2.35566
C          2.04845       -3.14525        1.18734
C          4.14695       -1.89014        0.83820
H          1.41673       -0.96131        2.72371
H          2.72897        0.11452        2.22737
H          3.06745       -1.35046        3.15769
H          0.98174       -3.14555        1.41643
H          2.54655       -3.70083        1.99049
H          2.17706       -3.71451        0.25929
H          4.64594       -0.92075        0.86050
H          4.38092       -2.37022       -0.11826
H          4.59884       -2.49959        1.62988







