%chk=185-an-PCM.chk
%nproc=8
%mem=30GB
#P UB3LYP/6-311++G(d,p) SCRF=(PCM,Solvent=n,n-DiMethylFormamide)

Reduced 

-2 1
C                  4.8792300000     -2.8690370000     -0.3502620000
C                  5.6030330000     -1.9804810000     -1.1144070000
C                  4.9994740000     -0.7586480000     -1.5411480000
C                  3.5349210000     -2.6147490000      0.0364930000
C                  2.9207680000     -1.3714430000     -0.3977320000
C                  3.6986090000     -0.4789280000     -1.1850300000
C                  2.8218730000     -3.5639400000      0.8292780000
C                  1.4713040000     -3.2307260000      1.1765360000
C                  0.8609100000     -1.9950210000      0.7449150000
C                  1.5757950000     -1.0412020000     -0.0517600000
C                  0.6984860000     -4.1488040000      1.9766550000
C                 -0.6014200000     -3.8442120000      2.3197190000
C                 -0.5019610000     -1.7184880000      1.1277740000
C                 -1.2038960000     -2.6245400000      1.8937030000
O                  3.3709750000     -4.6952820000      1.2288150000
O                  1.0097020000      0.0856710000     -0.4404660000
O                  1.2750710000     -5.3162890000      2.3843390000
H                  5.3133360000     -3.8048540000     -0.0124250000
H                  6.6309070000     -2.2063340000     -1.3931460000
H                  5.5672030000     -0.0529310000     -2.1452040000
H                  3.2155000000      0.4421830000     -1.4956550000
H                  2.2313580000     -5.2596320000      1.9794850000
O                 -1.0783780000     -0.5511130000      0.7199340000
H                 -2.2295510000     -2.3908880000      2.1680260000
H                 -1.1610020000     -4.5541910000      2.9235500000
H                 -0.3199570000     -0.0931110000      0.1745750000





