$molecule
-1 2
C                  4.7924120000     -3.0421220000      0.3176360000
C                  5.7020380000     -2.2435330000     -0.3463960000
C                  5.2721480000     -1.0556510000     -0.9743860000
C                  3.4280900000     -2.6867530000      0.3789680000
C                  2.9947020000     -1.4907630000     -0.2534720000
C                  3.9417090000     -0.6897530000     -0.9262620000
C                  2.4891240000     -3.5447430000      1.0855820000
C                  1.1013670000     -3.1396790000      1.1186320000
C                  0.6637170000     -1.9347960000      0.4836050000
C                  1.5966370000     -1.0801240000     -0.2180990000
C                  0.1633680000     -3.9646760000      1.8047210000
C                 -1.1771390000     -3.5719230000      1.8365440000
C                 -0.7134010000     -1.5720690000      0.5507650000
C                 -1.6142700000     -2.3841130000      1.2213690000
O                  2.8838900000     -4.6182610000      1.6550300000
O                  1.2173740000     -0.0042470000     -0.7861450000
O                  0.5685000000     -5.0839230000      2.4204390000
H                  5.0969050000     -3.9590660000      0.8075100000
H                  6.7485150000     -2.5286810000     -0.3862840000
H                  5.9892750000     -0.4296050000     -1.4958630000
H                  1.5686750000     -5.1344780000      2.2329040000
O                 -1.1621510000     -0.4389140000     -0.0318010000
H                 -2.6560240000     -2.0999080000      1.2722180000
H                 -0.3528420000     -0.0216410000     -0.4499840000
H                  3.5865310000      0.2172190000     -1.4003700000
S                 -2.4105860000     -4.5930810000      2.6167820000
O                 -3.6574190000     -3.8390470000      2.6594530000
O                 -2.4155250000     -5.9518740000      2.0795340000
O                 -1.9007370000     -4.6741840000      4.1839860000
C                 -1.4157120000     -5.9362420000      4.6905860000
H                 -0.5700080000     -6.2844590000      4.1008000000
H                 -2.2146970000     -6.6797270000      4.6968980000
H                 -1.1027940000     -5.7135710000      5.7107510000
$end

$rem
   BASIS  =  6-311++G(d,p)
   GUI  =  2
   JOB_TYPE  =  SP
   METHOD  =  B3LYP
   SCF_CONVERGENCE  = 8
   SOLVENT_METHOD = sm12
$end

$smx
   solvent dimethylformamide
   charges CM5
$end





