$molecule
-1 1
C                 -1.8580200000      2.7968120000     -0.7932290000
C                 -2.9308370000      1.9638980000     -0.5004900000
C                 -2.6842500000      0.6610020000     -0.0667300000
C                 -0.5457990000      2.3352550000     -0.6549940000
C                 -0.2877370000      1.0154030000     -0.2156430000
C                 -1.3823280000      0.1881750000      0.0755030000
C                  0.5713570000      3.2599230000     -0.9792830000
C                  2.0208830000      2.7160880000     -0.8153840000
C                  2.1662000000      1.3421810000     -0.3562460000
C                  1.1076500000      0.5512780000     -0.0775560000
O                  0.3951980000      4.4000600000     -1.3593870000
O                  2.9602220000      3.4488330000     -1.0733110000
H                 -2.0090400000      3.8147640000     -1.1326370000
H                 -3.9484050000      2.3239000000     -0.6084080000
H                 -3.5131650000      0.0006380000      0.1651060000
H                 -1.2057830000     -0.8227590000      0.4123190000
H                  3.1706040000      0.9527630000     -0.2383390000
S                  1.4444230000     -1.1686950000      0.4951220000
O                  2.9167020000     -1.2788840000      0.5133440000
O                  0.7657270000     -2.0016540000     -0.5292340000
O                  0.7957510000     -1.2103760000      1.8297480000
$end

$rem
   BASIS  =  6-311++G(d,p)
   GUI  =  2
   JOB_TYPE  =  SP
   METHOD  =  B3LYP
   SCF_CONVERGENCE  = 8
   SOLVENT_METHOD = sm12
$end

$smx
   solvent dimethylformamide
   charges CM5
$end





