$molecule
0 1
C                 -3.0152980000      3.7702920000      0.4075160000
C                 -4.2718310000      3.1954110000      0.5225650000
C                 -4.4402810000      1.8096460000      0.4780320000
C                 -1.8952400000      2.9526560000      0.2493280000
C                 -2.0458720000      1.5557670000      0.2082560000
C                 -3.3239910000      0.9999730000      0.3233700000
C                 -0.5526240000      3.5927190000      0.1259500000
C                  0.6235830000      2.6870990000     -0.0286330000
C                  0.4706560000      1.2904550000     -0.0695020000
C                 -0.8719240000      0.6530030000      0.0410720000
C                  1.8952440000      3.2525740000     -0.1344790000
C                  3.0009250000      2.4286600000     -0.2802870000
C                  2.8665360000      1.0392960000     -0.3286470000
C                  1.6008680000      0.4807680000     -0.2203490000
O                 -0.4220420000      4.8049780000      0.1511600000
O                 -1.0047060000     -0.5595820000     -0.0037320000
H                 -3.4238710000     -0.0776150000      0.2870170000
H                  1.4662920000     -0.5931590000     -0.2529860000
H                 -2.8956840000      4.8456680000      0.4355640000
H                  2.0087280000      4.3285960000     -0.1057870000
H                  3.7383460000      0.4102140000     -0.4420300000
O                  4.2264400000      3.0602270000     -0.4589300000
C                  5.3279920000      2.6877740000      0.2816870000
C                  6.5099020000      3.5289450000     -0.1118440000
O                  5.3077680000      1.8252930000      1.1136050000
O                 -5.3500330000      4.0697280000      0.5984660000
H                  6.3012600000      4.5801160000      0.1004570000
H                  6.6910250000      3.4419940000     -1.1852820000
H                  7.3856610000      3.2045830000      0.4457130000
C                 -6.3171390000      3.9161480000      1.5689240000
C                 -7.3566460000      4.9918340000      1.4217110000
O                 -6.2950930000      3.0497310000      2.3966980000
H                 -5.4264930000      1.3764970000      0.5699120000
H                 -6.8952040000      5.9718630000      1.5639890000
H                 -8.1403050000      4.8402880000      2.1605960000
H                 -7.7771590000      4.9717290000      0.4140750000
$end

$rem
   BASIS  =  6-311++G(d,p)
   GUI  =  2
   JOB_TYPE  =  SP
   METHOD  =  B3LYP
   SCF_CONVERGENCE  = 8
   SOLVENT_METHOD = sm12
$end

$smx
   solvent dimethylformamide
   charges CM5
$end





