%chk=133.chk
%nproc=8
%mem=30GB
#P UB3LYP/6-311++G(d,p) nosym opt freq

Oxidized

0 1
O     1.5774413453   -2.9757007875    0.0783664360
C     1.2784214955   -1.7406494661    0.0404275577
C     2.3806429842   -0.8058024407   -0.0085197879
C     3.6822116942   -1.2566540985   -0.0128314384
C     4.7178898767   -0.3535862776   -0.0596776038
C     4.3996082599    0.9867155836   -0.1009463949
C     3.0959093590    1.4333755132   -0.0964593434
C     2.0413256067    0.5312963984   -0.0493589831
C     0.6456035096    0.9977569172   -0.0441558884
O     0.5018662057    2.2266914495   -0.0842507831
C    -0.4217316598    0.0162613422    0.0058653945
C    -1.7509940970    0.4055600666    0.0127085911
C    -2.0991189009    1.7359411121   -0.0277606977
C    -3.4394924164    2.1623169922   -0.0220220502
C    -4.4049808214    1.1980002528    0.0258556974
C    -4.1025662256   -0.1381023695    0.0672189374
C    -2.7761592239   -0.5444790319    0.0610026173
C    -2.4584917420   -1.8735055694    0.1018930990
C    -1.1406123187   -2.2575361228    0.0950422449
C    -0.1122367706   -1.3498917807    0.0481575550
H     3.9337165713   -2.3030620567    0.0193383743
H     5.7600390182   -0.6850635112   -0.0641465956
H     5.2139133428    1.6953057274   -0.1377310992
H     2.8635499618    2.4875639778   -0.1291875160
H    -1.3501230971    2.4943745530   -0.0652571870
H    -3.6031599368    3.2194421015   -0.0558976653
H    -5.4671229500    1.4983710781    0.0316970204
H    -4.8580307692   -0.8927763656    0.1046789263
H    -3.2565978977   -2.6018146523    0.1391016328
H    -0.8507204038   -3.3103485353    0.1268489497


