%chk=290-rad-PCM.chk
%nproc=8
%mem=30GB
#P UB3LYP/6-311++G(d,p) SCRF=(PCM,Solvent=n,n-DiMethylFormamide)

Radical PCM in DMF 

-1 2
O                 -0.3447460000      2.1699070000      0.2951340000
C                 -0.5352630000      0.9363600000      0.1055220000
C                  0.5484600000      0.0220340000     -0.1734980000
C                  0.3221030000     -1.3343660000     -0.3708980000
O                  1.3596500000     -2.2000110000     -0.6227200000
C                 -0.9903460000     -1.9472280000     -0.3528040000
O                 -1.1666260000     -3.1770810000     -0.5515020000
C                 -2.1017670000     -1.0276230000     -0.0826590000
C                 -3.4191290000     -1.5297680000     -0.0381230000
C                 -4.4921790000     -0.6969120000      0.2214180000
C                 -4.2789000000      0.6779460000      0.4466000000
C                 -2.9934620000      1.1893420000      0.4068750000
C                 -1.8875680000      0.3580100000      0.1453570000
C                  1.9400800000      0.6197190000     -0.2855980000
H                 -3.5545780000     -2.5908010000     -0.2145280000
H                 -5.4998790000     -1.1016890000      0.2519710000
H                 -5.1211320000      1.3329640000      0.6499580000
H                 -2.7966830000      2.2421530000      0.5747370000
C                  2.9267900000      0.0856680000      0.7223140000
C                  4.1778710000     -0.3640110000      0.5309280000
C                  4.8811080000     -0.4126780000     -0.8041830000
C                  5.0112750000     -0.8554150000      1.6910090000
H                  2.1809640000     -1.7747030000     -0.3457260000
H                  1.8055390000      1.6940480000     -0.1149880000
H                  2.3213260000      0.5035210000     -1.3070700000
H                  2.5454300000      0.0709000000      1.7426800000
H                  4.2422140000     -0.1101690000     -1.6334860000
H                  5.2527960000     -1.4238150000     -1.0125290000
H                  5.7584460000      0.2470870000     -0.7997590000
H                  4.4622610000     -0.7983860000      2.6332640000
H                  5.9309650000     -0.2646370000      1.7952870000
H                  5.3239720000     -1.8968210000      1.5413920000





