$molecule
-1 2
C                  5.7601050000     -5.2944380000      1.2614460000
C                  6.6944770000     -5.1481350000      0.2417360000
C                  6.5751730000     -4.1517910000     -0.7409080000
C                  4.6425500000     -4.4044310000      1.3131480000
C                  4.5298440000     -3.3938910000      0.3089260000
C                  5.5017910000     -3.2865190000     -0.7024620000
C                  3.6129550000     -4.5029570000      2.3675550000
C                  2.5243660000     -3.5472270000      2.3204500000
C                  2.4425320000     -2.5837260000      1.3396190000
C                  3.4065520000     -2.4351860000      0.2905290000
O                  3.6534060000     -5.3730250000      3.2843120000
O                  3.3113200000     -1.5446490000     -0.5982870000
C                  5.9868980000     -6.4019460000      2.2675450000
H                  7.5410360000     -5.8291690000      0.2099460000
C                  1.4797510000     -3.6560160000      3.3998240000
H                  1.6135290000     -1.8798370000      1.3300920000
H                  5.3672880000     -2.5024000000     -1.4384480000
H                  7.3253990000     -4.0683960000     -1.5222320000
H                  6.9056790000     -6.9436760000      2.0162200000
H                  5.1508300000     -7.1033130000      2.2911740000
H                  6.0654670000     -6.0133880000      3.2846080000
H                  1.0080600000     -4.6446950000      3.3922840000
H                  0.7064620000     -2.8927580000      3.2739460000
H                  1.9281740000     -3.5474200000      4.3933810000
$end
$rem
   MAX_SCF_CYCLES=200
   BASIS  =  6-311++G(d,p)
   GUI  =  2
   JOB_TYPE  =  SP
   METHOD  =  B3LYP
   SOLVENT_METHOD = PCM
$end
$pcm
   theory = CPCM
$end
$solvent
   dielectric 37.219
   opticaldielectric 1.43
$end






