%chk=206-an.chk
%nproc=8
%mem=30GB
#P UB3LYP/6-311++G(d,p) nosym opt freq

Reduced

-2 1
C    -4.5027602559    0.8728595642    0.3316104915
C    -3.1709483625    0.2371622216    0.1629028397
C    -3.0492622453   -1.0790003928   -0.0859015873
C    -1.8030002839   -1.6884279010   -0.2464787450
O    -1.7884152364   -3.0034266384   -0.4909864384
C    -0.6521122145   -0.9107847705   -0.1460970032
C     0.6630277249   -1.5217262718   -0.3095915377
O     0.7295155457   -2.7527234076   -0.5404921477
C     1.8647988366   -0.7097870662   -0.2048040147
C     3.1118799218   -1.2769249761   -0.3575904311
O     3.2801109067   -2.6011339590   -0.6096671843
C     4.2541471082   -0.4721517604   -0.2518687364
C     4.1137435267    0.8412169813   -0.0028650465
C     2.8479512454    1.4624242523    0.1606642642
O     2.8253926834    2.8003165248    0.4097178038
C     1.7518261838    0.6645935388    0.0544694441
C     0.4236233865    1.2701516995    0.2174651827
O     0.2977911325    2.4822747563    0.4471306012
C    -0.7779012639    0.4527068879    0.1116424322
C    -2.0145889541    1.0564936894    0.2708072092
O    -2.2012019214    2.3722938950    0.5220157992
H    -4.8952531778    1.1317364130   -0.6707614953
H    -4.3926524018    1.7835564666    0.9851392929
H    -5.1398901037    0.1343794448    0.8582160097
H    -3.9663416320   -1.6816212906   -0.1627409763
H    -1.1607674022   -3.6847139814   -0.6413105368
H     2.6681988285   -3.3144924360   -0.7186454743
H     5.2087961341   -0.9554705738   -0.3779485464
H     4.9773640100    1.5172964634    0.0895997864
H     2.1377090191    3.4449810927    0.5555456663
H    -1.6407807383    3.1279415339    0.6408230783


