$molecule
-1 2
C                 -4.9829770000     -1.2267170000     -0.6061740000
C                 -3.5810530000     -1.6767210000     -0.2962520000
O                 -3.2284020000     -2.2512910000      0.6989310000
O                 -2.7562510000     -1.3850800000     -1.3443760000
C                 -1.3723720000     -1.4006320000     -1.1465750000
C                 -0.6923110000     -2.4319520000     -1.7487960000
C                  0.7082260000     -2.4633390000     -1.6978040000
C                  1.3881960000     -1.4624170000     -1.0462250000
O                  2.7820950000     -1.5093860000     -1.1425730000
C                  3.5142300000     -1.8351130000     -0.0372120000
C                  4.9538500000     -1.4492890000     -0.2434700000
O                  3.0642420000     -2.3902050000      0.9293610000
C                  0.7297730000     -0.3746380000     -0.4117750000
C                  1.4908640000      0.6962130000      0.2412740000
O                  2.7426550000      0.6822360000      0.3507190000
C                  0.7210910000      1.8220430000      0.7724220000
C                  1.4104360000      2.9037710000      1.3637250000
C                  0.7271360000      3.9848890000      1.8821320000
C                 -0.6830240000      4.0161240000      1.8314850000
C                 -1.3745090000      2.9654650000      1.2636460000
C                 -0.6930180000      1.8534140000      0.7215330000
C                 -1.4716910000      0.7620650000      0.1343530000
O                 -2.7274810000      0.8038210000      0.1532320000
C                 -0.7137890000     -0.3424550000     -0.4640560000
H                 -5.0009520000     -0.1415670000     -0.4846310000
H                 -5.6817800000     -1.6936190000      0.0866120000
H                 -5.2480690000     -1.4621450000     -1.6389920000
H                 -1.2537180000     -3.2035910000     -2.2611970000
H                  1.2702960000     -3.2602270000     -2.1691950000
H                  5.0115410000     -0.3656360000     -0.1209330000
H                  5.2830800000     -1.6997470000     -1.2540580000
H                  5.5783440000     -1.9447320000      0.4987040000
H                  2.4918810000      2.8484700000      1.3949390000
H                  1.2722620000      4.8093200000      2.3318520000
H                 -1.2220100000      4.8645510000      2.2422890000
H                 -2.4567910000      2.9581130000      1.2170870000
$end

$rem
   BASIS  =  6-311++G(d,p)
   GUI  =  2
   JOB_TYPE  =  SP
   METHOD  =  B3LYP
   SCF_CONVERGENCE  = 8
   SOLVENT_METHOD = sm12
$end

$smx
   solvent dimethylformamide
   charges CM5
$end





