%chk=036-PCM.chk
%nproc=8
%mem=30GB
#P UB3LYP/6-311++G(d,p) SCRF=(PCM,Solvent=n,n-DiMethylFormamide)

Quinone PCM in DMF 

0 1
 C                 -3.15952000    1.79781100    0.42580200
 C                 -4.18254000    1.42754900   -0.57451700
 C                 -4.01513800    0.33146900   -1.31441000
 C                 -2.78932900   -0.49690500   -1.17524400
 C                 -1.93826200   -0.34651300    0.05616000
 C                 -2.04075800    0.83559400    0.72510200
 O                 -3.24847600    2.85799200    1.02531100
 O                 -2.47454500   -1.21331900   -2.11249900
 C                 -1.12981500    1.32631400    1.81668900
 C                 -0.96579500   -1.48553100    0.48051000
 C                  0.49952400   -1.05011100    0.27996300
 C                  0.88422700   -0.46706800   -0.93563100
 C                  1.49096500   -1.27895600    1.23963900
 C                  2.82037900   -0.92683700    0.99895600
 C                  2.20828400   -0.11391300   -1.17811400
 C                  3.18518600   -0.34032500   -0.20881900
 H                 -5.01771300    2.10942000   -0.68785300
 H                 -4.68880500    0.03785000   -2.11176100
 H                 -1.61181800    1.24071000    2.79621400
 H                 -0.94099800    2.39110100    1.66866100
 H                 -0.18246600    0.79660900    1.83809600
 H                  0.14094300   -0.29532600   -1.70631800
 H                  1.23815600   -1.73016800    2.19095700
 H                  3.56847000   -1.11206400    1.76206200
 H                  2.47758200    0.33706800   -2.12689900
 C                 -1.30328000   -1.84895300    1.95098100
 H                 -2.36147300   -2.11125800    2.02401600
 H                 -0.73096200   -2.72431200    2.26512500
 H                 -1.10737200   -1.04517800    2.65783300
 C                 -1.14708500   -2.81154000   -0.31179600
 H                 -2.17837000   -3.17057900   -0.25842300
 H                 -0.87329500   -2.71967400   -1.35791500
 H                 -0.50376900   -3.56420200    0.15091300
 H                  4.21685600   -0.06440900   -0.39519500











