%chk=036.chk
%nproc=8
%mem=30GB
#P UB3LYP/6-311++G(d,p) nosym opt freq

Oxidized

0 1
 C                 -3.15965000    1.79773700    0.42598900
 C                 -4.18263500    1.42759100   -0.57439700
 C                 -4.01521400    0.33155400   -1.31436000
 C                 -2.78944200   -0.49692800   -1.17522200
 C                 -1.93825300   -0.34648900    0.05601800
 C                 -2.04075900    0.83557300    0.72502800
 O                 -3.24872700    2.85771000    1.02585400
 O                 -2.47489100   -1.21355400   -2.11240300
 C                 -1.12966400    1.32618000    1.81654000
 C                 -0.96575000   -1.48543600    0.48042800
 C                  0.49957900   -1.05004900    0.27995100
 C                  0.88437900   -0.46722300   -0.93571300
 C                  1.49094400   -1.27882000    1.23971900
 C                  2.82037500   -0.92675300    0.99908500
 C                  2.20846800   -0.11414800   -1.17816100
 C                  3.18528300   -0.34042200   -0.20875300
 H                 -5.01783200    2.10944100   -0.68766700
 H                 -4.68888500    0.03793900   -2.11170800
 H                 -1.61139700    1.24002300    2.79618400
 H                 -0.94128700    2.39109800    1.66892400
 H                 -0.18216600    0.79675400    1.83751800
 H                  0.14115400   -0.29561300   -1.70648400
 H                  1.23804000   -1.72986300    2.19109300
 H                  3.56841400   -1.11189200    1.76226500
 H                  2.47785200    0.33667200   -2.12699800
 C                 -1.30338600   -1.84872400    1.95087700
 H                 -2.36149500   -2.11140800    2.02376100
 H                 -0.73082300   -2.72381400    2.26533100
 H                 -1.10796600   -1.04470600    2.65761100
 C                 -1.14702400   -2.81142800   -0.31188500
 H                 -2.17832600   -3.17040800   -0.25860400
 H                 -0.87313800   -2.71954400   -1.35798700
 H                 -0.50377000   -3.56413200    0.15085900
 H                  4.21697700   -0.06457300   -0.39509700










