%chk=139.chk
%nproc=8
%mem=30GB
#P UB3LYP/6-311++G(d,p) nosym opt freq SCRF=(PCM,Solvent=n,n-DiMethylFormamide)

Oxidized

0 1
C                 -3.2062390000      3.0237620000     -0.2419030000
O                 -1.9031900000      2.5020270000     -0.0211410000
C                 -1.7247970000      1.1622720000      0.0274260000
C                 -2.7838970000      0.2615630000     -0.1103800000
C                 -2.5687440000     -1.1072990000     -0.0826550000
C                 -1.2853240000     -1.6337290000      0.0837750000
O                 -1.0441340000     -2.9644590000      0.0893280000
C                 -2.1231350000     -3.8689170000     -0.1019380000
C                 -0.1911470000     -0.7447730000      0.2271110000
C                  1.1967490000     -1.2836570000      0.4017490000
O                  1.4264070000     -2.4425510000      0.6995510000
C                  2.3299190000     -0.3374850000      0.1834030000
C                  3.6283510000     -0.8422040000      0.0518220000
C                  4.6952710000      0.0279300000     -0.1310180000
C                  4.4778410000      1.4098630000     -0.1577220000
C                  3.1942560000      1.9166870000     -0.0015000000
C                  2.1127310000      1.0430500000      0.1566540000
C                  0.7425570000      1.6030770000      0.3458900000
O                  0.6034420000      2.7866450000      0.5994220000
C                 -0.4117480000      0.6580120000      0.1992050000
H                 -3.0846460000      4.1052620000     -0.2545880000
H                 -3.8925510000      2.7476610000      0.5659770000
H                 -3.6165220000      2.6931460000     -1.2025840000
H                 -3.7939700000      0.6226200000     -0.2431000000
H                 -3.4186170000     -1.7656130000     -0.1946950000
H                 -2.8659450000     -3.7844430000      0.6987050000
H                 -1.6757480000     -4.8606580000     -0.0722210000
H                 -2.6091750000     -3.7187530000     -1.0723870000
H                  3.7748030000     -1.9141450000      0.0971310000
H                  5.6993230000     -0.3644530000     -0.2471780000
H                  5.3136370000      2.0868370000     -0.2945800000
H                  3.0042420000      2.9827250000      0.0024420000


