$molecule
-1 2
C                 -1.6033300000     -1.3928630000     -0.1354240000
C                 -0.2789120000     -0.6702350000     -0.0985750000
C                 -0.2091530000      0.6889790000      0.1351120000
C                 -1.4543420000      1.5105520000      0.3637250000
C                  1.0698610000      1.3965510000      0.1723600000
O                  1.1493830000      2.6438380000      0.3856570000
C                  2.2465710000      0.5881260000     -0.0493870000
C                  2.1774520000     -0.7584080000     -0.2809000000
C                  0.9225970000     -1.4732550000     -0.3210810000
O                  0.8740010000     -2.7217170000     -0.5368700000
H                 -1.4292080000     -2.4512210000     -0.3337140000
H                 -2.2639910000     -0.9926840000     -0.9154220000
H                 -2.1458060000     -1.2974080000      0.8141240000
H                 -2.0203710000      1.1581010000      1.2357410000
H                 -2.1375290000      1.4616550000     -0.4940980000
H                 -1.1723930000      2.5514700000      0.5272990000
H                  3.2006460000      1.1081210000     -0.0229710000
H                  3.0745230000     -1.3496040000     -0.4455740000
$end
$rem
   MAX_SCF_CYCLES=200
   BASIS  =  6-311++G(d,p)
   GUI  =  2
   JOB_TYPE  =  SP
   METHOD  =  B3LYP
   SOLVENT_METHOD = PCM
$end
$pcm
   theory = CPCM
$end
$solvent
   dielectric 37.219
   opticaldielectric 1.43
$end





