%chk=296-an.chk
%nproc=8
%mem=30GB
#P UB3LYP/6-311++G(d,p) nosym opt freq SCF=YQC

Reduced

-2 1
C                 -1.59350300    3.41259200   -0.38477500
 C                 -2.58871300    3.50436400    0.56803200
 C                 -2.61207800    2.59778600    1.65742000
 C                 -0.57957300    2.42343700   -0.30502800
 C                 -0.60223400    1.49961300    0.80245900
 C                 -1.63092700    1.62288300    1.75522300
 C                  0.44893100    2.33756100   -1.29604200
 C                  1.41687600    1.30203600   -1.10726000
 C                  1.43365500    0.38511000   -0.05675000
 C                  0.41012700    0.44727200    0.96045200
 O                  0.57920300    3.10719900   -2.33524600
 O                  0.37338800   -0.35785000    1.94961600
 O                  2.37156300    1.29186700   -2.10019900
 C                  2.50503100   -0.67903300    0.07207200
 C                  2.52942900   -1.68444700   -1.11610600
 C                  3.92350800   -0.11349600    0.28901200
 C                  4.92919200   -1.22390500    0.67100500
 C                  4.65920400   -2.58950600   -0.02567500
 C                  3.91620200   -2.32673200   -1.34794200
 C                  5.95527200   -3.42863800   -0.17986700
 C                  5.72162600   -4.80684000   -0.83575200
 C                  6.67953700   -3.63159000    1.16909500
 C                  7.97269100   -4.44992100    1.03956200
 C                  7.72411700   -5.80697200    0.37536600
 C                  7.01129600   -5.63223000   -0.96876800
 H                 -1.55510700    4.09634200   -1.22688400
 H                 -3.35493300    4.27258100    0.48349900
 H                 -3.39450600    2.66700500    2.40956300
 H                 -1.62075500    0.91404200    2.57711900
 H                  2.05014800    2.05213800   -2.64810300
 H                  2.23633000   -1.22874600    0.97974600
 H                  2.21916600   -1.17814600   -2.03235300
 H                  1.79128400   -2.47127800   -0.91827300
 H                  3.89529300    0.64140700    1.08088800
 H                  4.24669000    0.40325900   -0.61926200
 H                  4.91533900   -1.36623000    1.75699500
 H                  5.94559300   -0.88910600    0.41826800
 H                  3.97929500   -3.16841800    0.61713600
 H                  3.79019000   -3.24878100   -1.92309900
 H                  4.53299400   -1.66166900   -1.96748100
 H                  6.63432600   -2.86091800   -0.83711200
 H                  5.27044200   -4.68693400   -1.82452300
 H                  4.99461700   -5.36590300   -0.22943300
 H                  5.99450700   -4.14547400    1.85877100
 H                  6.90543200   -2.66377900    1.62548100
 H                  8.43517300   -4.58746500    2.02575000
 H                  8.69907600   -3.88457000    0.43927400
 H                  7.09665100   -6.42043400    1.03712400
 H                  8.66409300   -6.35944300    0.24926700
 H                  6.79078700   -6.61178600   -1.41286900
 H                  7.69014200   -5.12686300   -1.66963300


