%chk=112-an.chk
%nproc=8
%mem=30GB
#P UB3LYP/6-311++G(d,p) nosym opt freq SCRF=(PCM,Solvent=n,n-DiMethylFormamide)

Reduced

-2 1
O                  2.5516260000     -1.0233980000     -0.2551480000
C                  1.2926030000     -0.4663020000     -0.1252100000
C                  1.0511020000      0.9010200000     -0.0014210000
Cl                 2.4467910000      2.0286170000     -0.0085860000
C                 -0.2514140000      1.4431260000      0.1302930000
O                 -0.6055420000      2.6996210000      0.2528230000
C                 -1.2929620000      0.4661200000      0.1250830000
C                 -1.0513470000     -0.9008810000      0.0013280000
Cl                -2.4468870000     -2.0288610000      0.0088250000
C                  0.2514770000     -1.4431460000     -0.1305880000
O                  0.6050260000     -2.6997200000     -0.2532630000
O                 -2.5514610000      1.0236310000      0.2554000000
H                  2.2761710000     -1.9763620000     -0.3115110000
H                 -2.2751830000      1.9765370000      0.3119740000


