%chk=008.chk
%nproc=8
%mem=30GB
#P UB3LYP/6-311++G(d,p) nosym opt freq

Oxidized

0 1
C         -1.30172        1.99346        0.53961
C         -2.62767        1.40578        0.22083
C         -2.70764        0.16912       -0.29655
C         -1.47772       -0.61421       -0.55180
C         -0.15525       -0.02936       -0.23466
C         -0.06831        1.20696        0.28298
O         -1.55371       -1.73793       -1.02197
H         -3.67682       -0.26171       -0.53008
O         -1.22604        3.11768        1.01032
Cl         1.51253        1.88650        0.65391
Br        -4.23298        2.40231        0.54318
H          0.74564       -0.60623       -0.42310








