%chk=149-rad.chk
%nproc=8
%mem=30GB
#P UB3LYP/6-311++G(d,p) nosym  opt freq SCRF=(PCM,Solvent=n,n-DiMethylFormamide)

Radical

-1 2
C                 -3.0710990000      3.5479720000      1.0671990000
C                 -3.9875690000      2.9250240000      1.8903400000
C                 -3.8460090000      1.5533420000      2.1933720000
C                 -1.9817070000      2.8373630000      0.5159640000
C                 -1.8408940000      1.4577190000      0.8219460000
C                 -2.7898910000      0.8390120000      1.6652280000
C                 -1.0403240000      3.5551690000     -0.3530930000
C                  0.0809520000      2.7742240000     -0.8829480000
C                  0.2089080000      1.3744430000     -0.5856190000
C                 -0.7398820000      0.6658760000      0.2784520000
C                  1.0810630000      3.3337010000     -1.7278480000
C                  2.1054840000      2.5800880000     -2.2620810000
C                  2.2032760000      1.2073370000     -1.9652190000
C                  1.2707960000      0.6253970000     -1.1353230000
O                 -1.2188660000      4.7709680000     -0.6131320000
O                 -0.6124310000     -0.5560870000      0.5360950000
H                 -2.6544090000     -0.2150400000      1.8779470000
H                  1.3137380000     -0.4260590000     -0.8783340000
H                 -3.1557210000      4.5992220000      0.8188910000
O                  1.0427530000      4.6691890000     -2.1296150000
H                  3.0115040000      0.6198410000     -2.3887130000
H                 -4.5672170000      1.0633050000      2.8406320000
C                  1.5516890000      5.6386830000     -1.3184600000
C                  1.3974730000      6.9689440000     -1.7608100000
C                  2.2418520000      5.3874710000     -0.1329460000
C                  2.7911870000      6.4402910000      0.5992720000
C                  1.9598820000      8.0064490000     -1.0254040000
C                  2.6621170000      7.7522530000      0.1542720000
O                  0.7602200000      7.2544490000     -2.9434440000
C                 -0.6636380000      7.0330610000     -2.9380040000
H                 -4.8172350000      3.4891070000      2.3059120000
H                  2.8230940000      3.0722020000     -2.9085210000
H                  2.3472220000      4.3664330000      0.2102560000
H                  3.3220680000      6.2239960000      1.5201830000
H                  1.8341050000      9.0165610000     -1.3996930000
H                  3.0921930000      8.5721760000      0.7189230000
H                 -0.9713960000      7.0189260000     -3.9846730000
H                 -1.1620110000      7.8627120000     -2.4215240000
H                 -0.9212890000      6.0948510000     -2.4458310000


