$molecule
-2 1
C                 -1.5280530000      2.7856010000      0.0070570000
C                 -2.7898740000      2.2140440000     -0.0182240000
C                 -2.8984170000      0.7891840000     -0.0162300000
C                 -0.3349050000      2.0289070000      0.0188100000
C                 -0.4435310000      0.6003540000      0.0050360000
C                 -1.7374490000      0.0330810000     -0.0126450000
C                  0.9584500000      2.7049420000      0.0368730000
C                  2.0967710000      1.8340320000      0.0473820000
C                  1.9896380000      0.4249140000      0.0335640000
C                  0.7326770000     -0.2636540000      0.0160370000
O                  1.0510480000      3.9904910000      0.0358450000
O                  0.6296220000     -1.5484130000      0.0169760000
C                  3.4556110000      2.4945420000      0.0598980000
C                  3.2328120000     -0.4335900000      0.0512400000
H                 -1.4138870000      3.8657760000      0.0252250000
C                 -4.0308120000      3.0798000000      0.0050970000
C                 -4.2552310000      0.1212470000     -0.0707680000
H                  3.3114170000      3.5773690000      0.0703760000
H                  4.0602970000      2.2292810000     -0.8223570000
H                  4.0541140000      2.2088240000      0.9389420000
H                  3.8875570000     -0.2435700000     -0.8135120000
H                  2.9268180000     -1.4821920000      0.0359350000
H                  3.8503950000     -0.2610390000      0.9474480000
H                 -1.7878340000     -1.0519530000     -0.0300710000
H                 -3.7661930000      4.1395460000     -0.0551970000
H                 -4.6256760000      2.9413310000      0.9256440000
H                 -4.7112630000      2.8605700000     -0.8244380000
H                 -4.9145520000      0.4430300000      0.7422150000
H                 -4.1556910000     -0.9661970000     -0.0054050000
H                 -4.7997300000      0.3459740000     -1.0053630000
$end
$rem
   MAX_SCF_CYCLES=200
   BASIS  =  6-311++G(d,p)
   GUI  =  2
   JOB_TYPE  =  SP
   METHOD  =  B3LYP
   SOLVENT_METHOD = PCM
$end
$pcm
   theory = CPCM
$end
$solvent
   dielectric 37.219
   opticaldielectric 1.43
$end






