%chk=051.chk
%nproc=8
%mem=30GB
#P UB3LYP/6-311++G(d,p) nosym opt freq SCRF=(PCM,Solvent=n,n-DiMethylFormamide)

Oxidized

0 1
 C                  3.42501400    5.94286600    0.69681700
 C                  2.08708300    5.41512100    1.12426200
 C                  1.95118100    4.09739600    1.39195600
 C                  3.11228900    3.18580700    1.21105000
 C                  4.45076200    3.70893700    0.83637200
 C                  4.59452300    5.02374800    0.55464900
 O                  3.55363500    7.14164300    0.47554300
 O                  2.95763900    1.96613600    1.36975300
 C                  5.89324400    5.63938900    0.11813200
 C                  5.57136300    2.71153200    0.75022300
 C                  1.00138400    6.44564800    1.22209200
 C                  0.69095000    3.42278400    1.86519600
 C                 -0.02527000    2.59746600    0.75115600
 C                 -0.28834300    1.15367400    1.12958500
 O                 -1.36683300    0.63456000    1.08062700
 O                  0.78081600    0.44585500    1.51843600
 H                  6.53986400    5.82650600    0.98310900
 H                  5.71875500    6.59547000   -0.37219100
 H                  6.43562600    4.98168300   -0.56203100
 H                  5.39820400    1.87732800    1.42882400
 H                  6.53035000    3.17111900    0.98774900
 H                  5.64069800    2.29623000   -0.26172600
 H                  0.93422200    7.00752600    0.28753500
 H                  1.23714800    7.17292300    2.00470300
 H                  0.02879100    6.00949000    1.43422000
 H                 -0.00468300    4.15706500    2.26190100
 H                  0.95014900    2.77437800    2.70549200
 H                  0.57831000    2.58281100   -0.16181000
 H                 -0.97925300    3.05242200    0.49103300
 H                  1.59654700    0.99881700    1.49345900

















