$molecule
-1 2
Cl                 2.9961170000      2.8649360000      0.3373660000
C                  2.6218980000      1.1322400000      0.2631820000
C                  3.7261710000      0.3057710000      0.3436600000
C                  3.5667800000     -1.0906300000      0.2966680000
C                  2.3050860000     -1.6253420000      0.1702430000
C                  1.1648050000     -0.8002310000      0.0865570000
C                 -0.1307540000     -1.4744790000     -0.0460420000
O                 -0.2201620000     -2.7276280000     -0.0833920000
C                 -1.3063980000     -0.6162860000     -0.1322480000
C                 -2.5868400000     -1.1994860000     -0.2614550000
C                 -3.7201760000     -0.4169960000     -0.3456780000
C                 -3.6071110000      0.9897670000     -0.3027770000
C                 -2.3642560000      1.5778100000     -0.1768050000
C                 -1.1904230000      0.7976160000     -0.0888910000
C                  0.1018290000      1.4892440000      0.0439180000
O                  0.1432090000      2.7383800000      0.0765760000
C                  1.2957200000      0.6339230000      0.1318120000
H                  4.7094740000      0.7484980000      0.4428210000
H                  4.4395690000     -1.7327720000      0.3605090000
H                  2.1381980000     -2.6947850000      0.1301980000
H                 -2.6398680000     -2.2816010000     -0.2913870000
H                 -4.6973320000     -0.8805590000     -0.4447310000
H                 -4.4974860000      1.6080530000     -0.3688640000
H                 -2.2480480000      2.6545580000     -0.1412400000
$end

$rem
   BASIS  =  6-311++G(d,p)
   GUI  =  2
   JOB_TYPE  =  SP
   METHOD  =  B3LYP
   SCF_CONVERGENCE  = 8
   SOLVENT_METHOD = sm12
$end

$smx
   solvent dimethylformamide
   charges CM5
$end





