$molecule
-2 1
C                 -1.7105020000      2.9272360000     -0.8319000000
C                 -2.8461770000      2.1983630000     -0.5120390000
C                 -2.7171110000      0.8922520000     -0.0420790000
C                 -0.4376520000      2.3674130000     -0.6908970000
C                 -0.2932210000      1.0333230000     -0.2214800000
C                 -1.4517790000      0.3074770000      0.0978890000
C                  0.7320810000      3.1959900000     -1.0471010000
C                  2.1372190000      2.5575490000     -0.8727050000
C                  2.1815290000      1.1897350000     -0.3952200000
C                  1.0712100000      0.4752020000     -0.0934420000
O                  0.6461350000      4.3395900000     -1.4641450000
O                  3.1327940000      3.2172220000     -1.1416160000
H                 -1.7829430000      3.9443770000     -1.2000160000
H                 -3.8401590000      2.6118290000     -0.6293510000
S                 -4.2567660000      0.0074620000      0.4364720000
H                 -1.3737910000     -0.7129130000      0.4483090000
H                  3.1547460000      0.7286680000     -0.2776610000
S                  1.3563290000     -1.2576260000      0.4858990000
O                  2.8327320000     -1.4134140000      0.4870620000
O                  0.6613070000     -2.0797430000     -0.5322920000
O                  0.7437360000     -1.2827450000      1.8347140000
O                 -4.3635740000      0.2520900000      1.8984880000
O                 -4.0333940000     -1.4060870000      0.0608230000
O                 -5.3159810000      0.6926910000     -0.3567920000
$end

$rem
   BASIS  =  6-311++G(d,p)
   GUI  =  2
   JOB_TYPE  =  SP
   METHOD  =  B3LYP
   SCF_CONVERGENCE  = 8
   SOLVENT_METHOD = sm12
$end

$smx
   solvent dimethylformamide
   charges CM5
$end





