%chk=033-an.chk
%nproc=8
%mem=30GB
#P UB3LYP/6-311++G(d,p) nosym opt freq SCRF=(PCM,Solvent=n,n-DiMethylFormamide)

Reduced

-2 1
C                 -1.7862620000      1.1306190000      0.6301910000
C                 -1.1358370000     -0.0936430000     -0.0593010000
C                 -1.6833650000     -1.3652380000      0.6182730000
C                 -1.5778150000     -0.1310560000     -1.5450930000
C                  0.4024410000      0.0272360000      0.0150330000
C                  1.1774050000     -0.9498060000      0.6526380000
C                  2.6082300000     -0.9227550000      0.7827900000
O                  3.2810640000     -1.8539940000      1.3832940000
C                  3.2111420000      0.2359980000      0.1957240000
C                  2.4633530000      1.2235260000     -0.4369490000
C                  1.0394480000      1.1895860000     -0.5810440000
O                  0.3944610000      2.1388160000     -1.1953580000
H                 -2.8805900000      1.1037520000      0.5338720000
H                 -1.5377640000      1.1351370000      1.6987900000
H                 -1.3994500000      2.0442300000      0.1722990000
H                 -2.7768550000     -1.3968050000      0.5296630000
H                 -1.4316250000     -1.3975780000      1.6831050000
H                 -1.2836650000     -2.2735520000      0.1543970000
H                 -1.1611760000     -1.0179610000     -2.0362700000
H                 -2.6754240000     -0.1822020000     -1.6282190000
H                 -1.2075580000      0.7610290000     -2.0532340000
H                  0.7023780000     -1.8200760000      1.0962630000
H                  4.2964630000      0.3244880000      0.2630220000
H                  2.9610010000      2.0902460000     -0.8738830000


