%chk=015-an.chk
%nproc=8
%mem=30GB
#P UB3LYP/6-311++G(d,p) nosym opt freq

Reduced

-2 1
C    -1.7963869445    0.3545138342   -1.0701437774
C    -1.1554426819    0.1817130764    0.2879179408
C    -1.8307112416   -0.9808691293    1.0070713210
C    -1.4233603090    1.4070116503    1.1345866102
C     0.3151289008   -0.0896329348    0.1720786317
C     0.8240822040   -1.2108303577    0.6521459894
C     2.2726483221   -1.4814725974    0.5397396755
O     2.7355229105   -2.5578281468    1.0050269211
C     3.1607843445   -0.5122062921   -0.1039750508
C     2.6245212668    0.5919633274   -0.5707135457
Br    3.7436317617    1.8728447568   -1.4119858222
C     1.2022002479    0.8712044310   -0.4671824111
O     0.6942572646    1.9317613189   -0.9167220300
Br    5.0347381956   -0.8235382272   -0.2690184218
H    -2.7504268703   -0.2161143472   -1.1037867071
H    -1.1565736860   -0.0482934810   -1.8911849260
H    -2.0658326964    1.4132169939   -1.2693213847
H    -1.6929458137   -1.9271724239    0.4462725800
H    -2.9160604522   -0.7654818886    1.0769943939
H    -1.4065888723   -1.1193831176    2.0205575414
H    -0.7780999557    1.4142211952    2.0254442331
H    -2.4781636794    1.3211587583    1.4956666081
H    -1.3814044157    2.3409349010    0.5461988389
H     0.2244822001   -1.9677212998    1.1386460950


