$molecule
0 1
C                 -4.5815120000      0.2267800000      0.0184000000
C                 -3.1352910000     -0.1997940000      0.0207220000
C                 -2.7938400000     -1.5623630000     -0.0126890000
C                 -1.4686170000     -1.9704050000     -0.0124070000
C                 -0.4377710000     -1.0247680000      0.0215790000
C                  0.9772910000     -1.4875620000      0.0212130000
O                  1.2590240000     -2.6752570000     -0.0082820000
C                  2.0419220000     -0.4409580000      0.0583290000
C                  3.3829970000     -0.8364230000      0.0590130000
C                  4.3930930000      0.1176710000      0.0930620000
C                  4.0722280000      1.4776700000      0.1268000000
C                  2.7420200000      1.8802050000      0.1264350000
C                  1.7189910000      0.9274220000      0.0923090000
C                  0.2992110000      1.3885390000      0.0928270000
O                  0.0196590000      2.5762570000      0.1226610000
C                 -0.7634490000      0.3411970000      0.0554410000
C                 -2.1042520000      0.7373830000      0.0547010000
H                 -5.0912630000     -0.1216960000     -0.8851190000
H                 -4.6768200000      1.3126750000      0.0621310000
H                 -5.1164400000     -0.1954190000      0.8745210000
H                 -3.5821650000     -2.3081150000     -0.0390930000
H                 -1.2054030000     -3.0207130000     -0.0381290000
H                  3.6083370000     -1.8953670000      0.0325030000
H                  5.4313580000     -0.1943130000      0.0934140000
H                  4.8616120000      2.2202800000      0.1533140000
H                  2.4704240000      2.9282500000      0.1522780000
H                 -2.3213430000      1.7988240000      0.0815460000
$end
$rem
   MAX_SCF_CYCLES=200
   BASIS  =  6-311++G(d,p)
   GUI  =  2
   JOB_TYPE  =  SP
   METHOD  =  B3LYP
   SOLVENT_METHOD = PCM
$end
$pcm
   theory = CPCM
$end
$solvent
   dielectric 37.219
   opticaldielectric 1.43
$end





