$molecule
-1 2
C                 -2.9696990000      3.7214940000      0.1799420000
C                 -4.2311950000      3.1641880000      0.2359650000
C                 -4.3852070000      1.7612770000      0.1785240000
C                 -1.8163530000      2.9135510000      0.0655370000
C                 -1.9719370000      1.4977160000      0.0075280000
C                 -3.2728040000      0.9514320000      0.0665370000
C                 -0.5005540000      3.5526110000      0.0097180000
C                  0.6441690000      2.6501990000     -0.1061750000
C                  0.4917070000      1.2343280000     -0.1648790000
C                 -0.8238050000      0.5949710000     -0.1120820000
C                  1.9435030000      3.2015290000     -0.1701830000
C                  3.0343770000      2.3791840000     -0.2840060000
C                  2.9092370000      0.9791850000     -0.3464570000
C                  1.6458690000      0.4294550000     -0.2839600000
O                 -0.3600380000      4.8008460000      0.0571290000
O                 -0.9597390000     -0.6517910000     -0.1679120000
H                 -3.3606160000     -0.1280070000      0.0204330000
H                  1.5020690000     -0.6438030000     -0.3265580000
H                 -2.8221970000      4.7945340000      0.2221210000
H                  2.0497520000      4.2788440000     -0.1368140000
H                  3.7910990000      0.3561880000     -0.4329640000
H                 -5.3774820000      1.3221470000      0.2228540000
O                  4.3035470000      2.9887350000     -0.4486970000
C                  5.2838880000      2.7942320000      0.4624660000
C                  6.5176580000      3.5703660000      0.0584220000
O                  5.1917850000      2.1117940000      1.4506840000
H                 -5.1055050000      3.8024130000      0.3242890000
H                  6.2919540000      4.6395870000      0.0510650000
H                  6.8225620000      3.2936090000     -0.9532170000
H                  7.3220560000      3.3670650000      0.7629220000
$end

$rem
   BASIS  =  6-311++G(d,p)
   GUI  =  2
   JOB_TYPE  =  SP
   METHOD  =  B3LYP
   SCF_CONVERGENCE  = 8
   SOLVENT_METHOD = sm12
$end

$smx
   solvent dimethylformamide
   charges CM5
$end





