$molecule
-2 1
O                 -4.6071970000     -0.8522040000      1.1962630000
C                 -3.4070010000     -0.3438840000      0.6904710000
C                 -3.4120510000      0.8503160000     -0.0778320000
C                 -2.2173400000      1.3351540000     -0.5732450000
C                 -0.9787120000      0.7064820000     -0.3140570000
C                  0.2385320000      1.2970810000     -0.8473880000
O                  0.2378720000      2.3730470000     -1.5397960000
C                  1.4512370000      0.5644640000     -0.5384970000
C                  2.6949180000      1.0498310000     -1.0115040000
C                  3.8868840000      0.4037050000     -0.7502860000
C                  3.8794660000     -0.7920120000      0.0226570000
C                  2.6848600000     -1.2906200000      0.4994490000
C                  1.4417760000     -0.6538430000      0.2466040000
C                  0.2280830000     -1.2358890000      0.7842510000
O                  0.2300160000     -2.3109020000      1.4850050000
C                 -0.9835980000     -0.5074750000      0.4710540000
C                 -2.2315880000     -1.0057150000      0.9403470000
H                 -5.3287230000     -0.5362650000      0.6314380000
H                 -4.3483440000      1.3764080000     -0.2553720000
H                 -2.1877060000      2.2426200000     -1.1678940000
H                  2.6653640000      1.9643270000     -1.5962680000
H                  4.8250530000      0.8039860000     -1.1306120000
H                  4.8135470000     -1.3095780000      0.2354730000
H                  2.6473400000     -2.1996720000      1.0918850000
H                 -2.2226900000     -1.9293600000      1.5078540000
$end
$rem
   MAX_SCF_CYCLES=200
   BASIS  =  6-311++G(d,p)
   GUI  =  2
   JOB_TYPE  =  SP
   METHOD  =  B3LYP
   SOLVENT_METHOD = COSMO
$end
$solvent
   dielectric 37.219
   opticaldielectric 1.43
$end





