$molecule
0 1
N                 -3.4464670000      1.5826470000      0.4247530000
C                 -2.8460190000      0.3611830000      0.2761890000
C                 -3.6746640000     -0.7881560000      0.2482380000
C                 -3.1552480000     -2.0465480000      0.1341960000
C                 -1.7587330000     -2.2723020000      0.0496500000
N                 -1.3241070000     -3.5626240000     -0.0950390000
C                 -0.8975440000     -1.1477090000      0.0833760000
C                  0.5551490000     -1.3415690000      0.0396620000
O                  1.0352250000     -2.5017410000     -0.0164930000
C                  1.4457060000     -0.1769970000      0.0616270000
C                  2.8497960000     -0.3643960000      0.0319260000
N                  3.4568940000     -1.5914320000      0.0547840000
C                  3.6767000000      0.7863910000      0.0140710000
C                  3.1532000000      2.0482280000      0.0217850000
C                  1.7549020000      2.2755070000      0.0602720000
N                  1.3136790000      3.5713530000      0.0329970000
C                  0.8960460000      1.1489630000      0.0881240000
C                 -0.5551900000      1.3415780000      0.1695590000
O                 -1.0353110000      2.5017370000      0.2259760000
C                 -1.4442790000      0.1757950000      0.1850150000
H                 -2.8561410000      2.3973570000      0.3098350000
H                 -4.4382080000      1.6500790000      0.2689460000
H                 -4.7495510000     -0.6548860000      0.3210690000
H                 -3.8220320000     -2.9027220000      0.1056910000
H                 -1.9687300000     -4.3092340000      0.1035700000
H                 -0.3262940000     -3.7180120000     -0.0196410000
H                  4.4333430000     -1.6462120000     -0.1817460000
H                  2.8573930000     -2.3984060000     -0.0670550000
H                  4.7536570000      0.6513380000     -0.0051320000
H                  3.8179170000      2.9061190000     -0.0030430000
H                  0.3251290000      3.7193040000      0.1952240000
H                  1.9737840000      4.3053660000      0.2276220000
$end
$rem
   MAX_SCF_CYCLES=200
   BASIS  =  6-311++G(d,p)
   GUI  =  2
   JOB_TYPE  =  SP
   METHOD  =  B3LYP
   SOLVENT_METHOD = PCM
$end
$pcm
   theory = CPCM
$end
$solvent
   dielectric 37.219
   opticaldielectric 1.43
$end





