$molecule
0 1
C                  1.2357000000      1.5553440000     -0.4861730000
C                 -0.0427700000      1.1750080000      0.1904650000
C                 -0.4497590000     -0.1131900000      0.1868510000
C                  0.3665610000     -1.1467770000     -0.5107930000
C                  1.6804850000     -0.7867660000     -1.1849930000
C                  2.0860580000      0.4975460000     -1.0979280000
O                  1.5686770000      2.7272280000     -0.5339300000
O                 -0.0156190000     -2.3033580000     -0.5339930000
S                  3.6447950000      1.0840820000     -1.8835780000
C                  4.4881540000      2.0895430000     -0.6460180000
C                  4.4477480000      3.4768740000     -0.7479120000
C                  5.2279000000      1.4447150000      0.3434010000
C                  5.9280870000      2.2163070000      1.2680860000
C                  5.1645270000      4.2356190000      0.1733220000
C                  5.8969060000      3.6078190000      1.1812080000
O                  3.2741750000      1.9302970000     -3.0187770000
O                  4.4852000000     -0.1020210000     -2.0885880000
H                  3.8638440000      3.9397380000     -1.5316480000
H                  5.2724750000      0.3632860000      0.3740930000
H                  5.1493130000      5.3170510000      0.1044520000
H                  6.5086200000      1.7306720000      2.0437720000
C                 -1.7029040000     -0.6417780000      0.8252810000
C                 -0.7697470000      2.3278890000      0.8204840000
H                  6.4497800000      4.2048030000      1.8977510000
H                 -2.2396020000      0.1207190000      1.3841210000
H                 -1.4622060000     -1.4679300000      1.4987680000
H                 -2.3710000000     -1.0561460000      0.0648730000
H                 -0.9180050000      3.1226870000      0.0857970000
H                 -0.1669640000      2.7651770000      1.6219390000
H                 -1.7354990000      2.0392920000      1.2275700000
C                  2.3784390000     -1.9282340000     -1.8652350000
H                  1.7269400000     -2.7990740000     -1.8650200000
H                  3.3087340000     -2.1730380000     -1.3481000000
H                  2.6608150000     -1.6690050000     -2.8852460000
$end
$rem
   MAX_SCF_CYCLES=200
   BASIS  =  6-311++G(d,p)
   GUI  =  2
   JOB_TYPE  =  SP
   METHOD  =  B3LYP
   SOLVENT_METHOD = PCM
$end
$pcm
   theory = CPCM
$end
$solvent
   dielectric 37.219
   opticaldielectric 1.43
$end





