%chk=267-rad.chk
%nproc=8
%mem=30GB
#P UB3LYP/6-311++G(d,p) nosym opt freq

Radical

-1 2
 C   -1.2862103    2.7639135   -0.4743805
  C   -2.5787772    2.2341706   -0.4510328
  C   -2.7873967    0.9124665   -0.0530595
  C   -0.1876907    1.9711306   -0.0962142
  C   -0.3991090    0.6370903    0.3064697
  C   -1.7044744    0.1144758    0.3241796
  C    1.1937814    2.5166865   -0.1101011
  C    2.3415733    1.6702567    0.3059919
  C    2.1254993    0.3924240    0.6955528
  C    0.7645391   -0.1888831    0.7091500
  O    1.3964450    3.6708850   -0.4583269
  O    0.6127011   -1.3488470    1.0620641
  H   -1.1462354    3.7916029   -0.7855022
  H   -1.8873018   -0.9077604    0.6309869
  O    3.5828072    2.2395412    0.2942102
  H   -3.4203848    2.8497888   -0.7414241
  H   -3.7903546    0.5058127   -0.0357959
  H    2.9434574   -0.2415045    1.0170710
  C    4.8069175    1.6394206    0.5457334
  C    5.8638708    2.7367297    0.6706453
  C    5.1938795    0.6765422   -0.5869239
  H    4.7700055    1.0975601    1.5163032
  H    6.8565173    2.2941882    0.9010954
  H    5.5896531    3.4308390    1.4935820
  H    5.9366113    3.3180794   -0.2738869
  H    6.1820885    0.2161294   -0.3722866
  H    5.2542062    1.2213124   -1.5532539
  H    4.4555898   -0.1417403   -0.6964959






