$molecule
0 1
Cl                -2.5544670000      1.7869850000      0.7012950000
C                 -1.2058120000      0.7551000000      0.4278660000
C                 -1.2634520000     -0.5845490000      0.5604880000
Cl                -2.6933220000     -1.4234380000      1.0193420000
C                 -0.0629760000     -1.4484820000      0.3123130000
O                 -0.1142030000     -2.6481780000      0.4309120000
C                  1.2057510000     -0.7551130000     -0.0903110000
C                  1.2635650000      0.5844720000     -0.2229760000
Cl                 2.6934000000      1.4237650000     -0.6818440000
C                  0.0630240000      1.4485410000      0.0251910000
O                  0.1143560000      2.6481450000     -0.0934010000
Cl                 2.5541360000     -1.7872470000     -0.3636330000
$end

$rem
   BASIS  =  6-311++G(d,p)
   GUI  =  2
   JOB_TYPE  =  SP
   METHOD  =  B3LYP
   SCF_CONVERGENCE  = 8
   SOLVENT_METHOD = sm12
$end

$smx
   solvent dimethylformamide
   charges CM5
$end





