%chk=334-an.chk
%nproc=8
%mem=30GB
#P UB3LYP/6-311++G(d,p) nosym opt freq

Reduced

-2 1
C                 -1.06499700    0.99756100   -3.12511600
 C                 -1.88479700    1.20035300   -1.96075700
 C                  0.30815600    0.77590000   -2.75854900
 C                  0.73093900    0.49063100   -1.46447100
 C                 -0.21847000    0.24886100   -0.40004100
 C                 -1.47425000    0.91742600   -0.66219300
 C                  0.07043800   -0.54998700    0.81919300
 C                 -0.87897700   -0.79173900    1.88362100
 C                  1.32621800   -1.21854000    1.08136300
 C                 -0.45620300   -1.07699100    3.17771500
 C                  1.73675800   -1.50146000    2.37992200
 C                  0.91694000   -1.29867900    3.54427900
 O                 -1.47127700    1.15213000   -4.32419000
 O                  1.32323800   -1.45320900    4.74335400
 C                  2.21069100    0.75999400   -1.18147400
 C                  2.55754500    2.25646100   -1.33054700
 C                  4.02206700    2.56718400   -0.99714700
 C                  4.37788000    4.05168500   -1.14161800
 C                  2.11171400   -1.92560000   -0.02554200
 C                  1.95298100   -3.45890100    0.05090000
 C                  2.68386900   -4.19258000   -1.08045900
 C                  2.53148000   -5.71701000   -1.01637800
 C                 -2.35871700   -1.06113800    1.60061000
 C                 -2.70544900   -2.55765200    1.74949100
 C                 -4.16996000   -2.86845500    1.41611400
 C                 -4.52563800   -4.35300500    1.56039900
 C                 -2.25976800    1.62448000    0.44470200
 C                 -2.10116700    3.15778800    0.36820400
 C                 -2.83205300    3.89142200    1.49959100
 C                 -2.67981200    5.41586700    1.43547400
 H                 -2.83897000    1.70087300   -2.12158400
 H                  1.05078400    0.94831800   -3.53675100
 H                 -1.19886700   -1.24935400    3.95589500
 H                  2.69091400   -2.00200400    2.54077600
 H                  2.86082400    0.18816800   -1.85903500
 H                  2.47186800    0.46888100   -0.16570900
 H                  1.90231600    2.83447600   -0.66761000
 H                  2.33362900    2.59095000   -2.34937400
 H                  4.67607200    1.97283800   -1.64960700
 H                  4.23833800    2.23942400    0.02729300
 H                  4.20101300    4.40108800   -2.16502100
 H                  5.42958000    4.24541100   -0.89851700
 H                  3.76358800    4.66794900   -0.47632500
 H                  3.18400900   -1.68875700    0.02791400
 H                  1.76396500   -1.61536100   -1.00913600
 H                  0.88410400   -3.70160100    0.01166500
 H                  2.31415300   -3.82302000    1.01889600
 H                  3.75097000   -3.93363200   -1.05011000
 H                  2.31218600   -3.83030900   -2.04704900
 H                  2.92323400   -6.11255500   -0.07255400
 H                  3.06382800   -6.21571600   -1.83527900
 H                  1.47733700   -6.00791900   -1.07889900
 H                 -2.61996400   -0.76989300    0.58490400
 H                 -3.00884400   -0.48945000    2.27829500
 H                 -2.48145500   -2.89225000    2.76826600
 H                 -2.05020100   -3.13552100    1.08644700
 H                 -4.38630100   -2.54057400    0.39172700
 H                 -4.82398800   -2.27425300    2.06868400
 H                 -3.91132500   -4.96912500    0.89499200
 H                 -5.57733300   -4.54678900    1.31732200
 H                 -4.34869100   -4.70253300    2.58374500
 H                 -1.91196100    1.31429100    1.42829600
 H                 -3.33204700    1.38755400    0.39130900
 H                 -2.46243700    3.52185600   -0.59977500
 H                 -1.03231000    3.40058700    0.40736000
 H                 -2.46028200    3.52920500    2.46616600
 H                 -3.89913300    3.63237600    1.46931100
 H                 -1.62569500    5.70687800    1.49796400
 H                 -3.21218900    5.91453800    2.25437700
 H                 -3.07162600    5.81135500    0.49165100


