%chk=330.chk
%nproc=8
%mem=30GB
#P UB3LYP/6-311++G(d,p) nosym opt freq

Oxidized

0 1
C                  4.7441510000      0.2414680000      0.9485160000
C                  3.9713740000     -0.5992060000     -0.0842790000
C                  4.5979170000     -0.4734400000     -1.4851220000
C                  2.4901950000     -0.2575460000     -0.0961380000
C                  2.0273820000      1.0203850000     -0.4439820000
C                  0.6742610000      1.3292510000     -0.4548590000
C                 -0.3034470000      0.3777320000     -0.1176780000
C                  0.1615290000     -0.9042800000      0.2324120000
C                  1.5302190000     -1.2040730000      0.2394040000
C                 -0.7878090000     -1.9729690000      0.6044700000
O                 -0.4399470000     -3.0928930000      0.9095050000
C                 -2.3062360000     -1.6395580000      0.6037790000
O                 -3.0681360000     -2.5286360000      0.9215640000
C                 -2.7370390000     -0.2722640000      0.2199360000
C                 -4.1189700000      0.0585940000      0.2019940000
C                 -5.2204280000     -0.9089960000      0.5563160000
C                 -4.4884890000      1.3546990000     -0.1648280000
C                 -3.5353900000      2.3050040000     -0.5056310000
C                 -2.1861890000      1.9807120000     -0.4876050000
C                 -1.7556710000      0.6983160000     -0.1284360000
H                  4.3213110000      0.1260160000      1.9496950000
H                  4.7206150000      1.3056590000      0.6949330000
H                  5.7929000000     -0.0671680000      0.9846010000
H                  4.0500560000     -1.6485650000      0.2193380000
H                  4.0715810000     -1.0969170000     -2.2122340000
H                  5.6459960000     -0.7861720000     -1.4642870000
H                  4.5677480000      0.5595480000     -1.8445040000
H                  2.7357800000      1.7964470000     -0.7138020000
H                  0.3913830000      2.3347880000     -0.7332210000
H                  1.8195540000     -2.2111550000      0.5186390000
H                 -5.1137150000     -1.2873760000      1.5746450000
H                 -6.1888250000     -0.4135680000      0.4612080000
H                 -5.2075380000     -1.7900090000     -0.0882800000
H                 -5.5404310000      1.6163130000     -0.1819440000
H                 -3.8434850000      3.3058020000     -0.7878180000
H                 -1.4720090000      2.7444570000     -0.7589610000





