%chk=205.chk
%nproc=8
%mem=30GB
#P UB3LYP/6-311++G(d,p) nosym opt freq

Oxidized

0 1
O    -2.7018786636   -2.5381160997    0.5364426993
C    -2.5208056776   -1.2103730161    0.3936370267
C    -3.6710857806   -0.4122779743    0.4042082044
C    -3.5929042096    0.9379371171    0.2671010782
C    -2.3646835183    1.5891404137    0.1098190758
O    -2.3378990026    2.9300735260   -0.0224478541
C    -1.2533921720    0.7737230205    0.1039165360
C     0.0651109819    1.3490393150   -0.0529098933
O     0.1961815695    2.5869105919   -0.1831531626
C     1.3244444611    0.5841583275   -0.0750581698
C     2.5459364448    1.2141463954   -0.2297693774
O     2.6602550943    2.5444823338   -0.3677163750
C     3.7111963268    0.4096778413   -0.2408691883
C     3.5796995209   -0.9140136939   -0.1022510302
C     2.3483876536   -1.5868771956    0.0573725015
O     2.3543216694   -2.9446511028    0.1887719412
C     1.2168411662   -0.7846197544    0.0661051047
C    -0.0819247684   -1.3972396592    0.2250426205
O    -0.1685314369   -2.6401041319    0.3523715659
C    -1.3102058812   -0.6068856113    0.2423388934
H    -2.2044792691   -3.3492361526    0.5771269273
H    -4.6643428244   -0.8579384515    0.5235416821
H    -4.4795879691    1.5852234047    0.2721349967
H    -1.6798291787    3.6151609101   -0.1393628780
H     2.1862148239    3.3591607077   -0.4105340090
H     4.6492518333    0.9473956886   -0.3649117783
H     4.4751187539   -1.5490902862   -0.1091361601
H     1.7185900525   -3.6348064636    0.3044799803


