%chk=285.chk
%nproc=8
%mem=30GB
#P UB3LYP/6-311++G(d,p) nosym opt freq

Oxidized

0 1
C         -0.20901        3.97982        0.07208
C         -1.28958        3.47668        0.80014
C         -1.36395        2.11364        1.08923
C          0.80985        3.11766       -0.37390
C          0.73558        1.74496       -0.08311
C         -0.35801        1.24911        0.65126
C          1.96302        3.63178       -1.14660
C          3.03755        2.70742       -1.61341
C          2.97508        1.37142       -1.33603
C          1.81226        0.84153       -0.55558
O          2.03782        4.82434       -1.40553
O          1.74832       -0.35382       -0.30298
H         -0.17036        5.04066       -0.14153
H         -2.07028        4.14462        1.14063
H         -2.20229        1.72603        1.65362
H         -0.43551        0.19505        0.88666
O          4.07007        3.22675       -2.31538
C          4.01544        0.32613       -1.76024
C          5.24006        0.79264       -2.56320
C          6.16274       -0.38886       -2.89120
C          7.38638        0.07500       -3.69084
C          8.30913       -1.10529       -4.01718
H          4.14365        4.16736       -2.52816
H          3.48601       -0.43939       -2.36917
H          4.38842       -0.16335       -0.83374
H          5.81524        1.53180       -1.96372
H          4.90330        1.25179       -3.51835
H          5.59964       -1.14133       -3.48651
H          6.50281       -0.86364       -1.94429
H          7.94987        0.82735       -3.09576
H          7.04755        0.54903       -4.63854
H          7.74630       -1.85777       -4.61275
H          8.64796       -1.57932       -3.06944
C          9.53265       -0.64065       -4.81556
C         10.45400       -1.81253       -5.14173
H         10.10192        0.10949       -4.22427
H          9.20142       -0.16900       -5.76647
H         10.81748       -2.28938       -4.20652
H         11.32977       -1.44793       -5.71883
H          9.91532       -2.56860       -5.75188







