$molecule
0 1
C                 -3.3771490000      3.6872340000      0.0365510000
C                 -4.5920050000      3.0123770000      0.0577090000
C                 -4.6176280000      1.6151870000      0.0814750000
C                 -2.1756580000      2.9720830000      0.0389260000
C                 -2.2012570000      1.5655170000      0.0628530000
C                 -3.4284490000      0.8957120000      0.0840380000
C                 -0.8869420000      3.7239980000      0.0158770000
C                  0.3704130000      2.9214600000      0.0190150000
C                  0.3465820000      1.5183140000      0.0428510000
C                 -0.9409050000      0.7661020000      0.0661820000
C                  1.5973830000      3.5869310000     -0.0022810000
C                  2.7762490000      2.8562380000      0.0003210000
C                  2.7897180000      1.4494910000      0.0239720000
C                  1.5490320000      0.8097750000      0.0449430000
O                 -0.8610070000      4.9433380000     -0.0046910000
O                 -0.9624560000     -0.4538990000      0.0871000000
Br                 4.4294180000      3.8294040000     -0.0300210000
C                  4.0627630000      0.6487950000      0.0268070000
H                 -3.3338170000      4.7691770000      0.0179770000
H                 -5.5207070000      3.5715610000      0.0557530000
H                 -5.5662700000      1.0907730000      0.0979560000
H                 -3.4251640000     -0.1870950000      0.1022740000
H                  1.6057510000      4.6686620000     -0.0205460000
H                  1.5014010000     -0.2726980000      0.0636710000
H                  4.6817330000      0.8958470000      0.8937890000
H                  4.6635770000      0.8611870000     -0.8619480000
H                  3.8444340000     -0.4192200000      0.0500060000
$end
$rem
   MAX_SCF_CYCLES=200
   BASIS  =  6-311++G(d,p)
   GUI  =  2
   JOB_TYPE  =  SP
   METHOD  =  B3LYP
   SOLVENT_METHOD = COSMO
$end
$solvent
   dielectric 37.219
   opticaldielectric 1.43
$end





