%chk=237-rad.chk
%nproc=8
%mem=30GB
#P UB3LYP/6-311++G(d,p) nosym  opt freq SCRF=(PCM,Solvent=n,n-DiMethylFormamide)

Radical

-1 2
C                  5.7618090000     -5.2832010000      1.2484080000
C                  6.7319010000     -5.1537970000      0.2765100000
C                  6.6141250000     -4.1401580000     -0.6878170000
C                  4.6580120000     -4.4109860000      1.2825960000
C                  4.5310050000     -3.3756280000      0.3042550000
C                  5.5426370000     -3.2532830000     -0.6965980000
C                  3.6590020000     -4.6131700000      2.3553040000
C                  2.5524230000     -3.7023260000      2.3525690000
C                  2.4210360000     -2.7036910000      1.4173140000
C                  3.3634090000     -2.4664550000      0.3560480000
O                  3.7849050000     -5.5317470000      3.2110600000
O                  3.1833470000     -1.5299310000     -0.4726440000
H                  5.8111300000     -6.0504020000      2.0123130000
C                  5.5115850000     -2.1973390000     -1.7802120000
H                  7.5832870000     -5.8282500000      0.2523840000
H                  7.3795360000     -4.0402470000     -1.4530530000
H                  1.8096860000     -3.8373100000      3.1341920000
H                  1.5700710000     -2.0284130000      1.4416620000
H                  5.4960870000     -1.1896940000     -1.3605530000
H                  4.6082100000     -2.2700260000     -2.3883520000
H                  6.3910940000     -2.3063570000     -2.4246970000


