%chk=119.chk
%nproc=8
%mem=30GB
#P UB3LYP/genecp nosym opt freq

Oxidized

0 1
C                  6.9072270000     -1.6385930000     -0.2581940000
C                  7.4659780000     -0.6717450000     -1.0856220000
C                  6.6597520000      0.3233240000     -1.6451300000
C                  5.2963400000      0.3497310000     -1.3762470000
C                  4.7248230000     -0.6183870000     -0.5452400000
C                  5.5367000000     -1.6203120000      0.0181520000
C                  4.9654820000     -2.6707470000      0.9094630000
C                  3.4960870000     -2.6164190000      1.1801600000
C                  2.6870510000     -1.6151600000      0.6167200000
C                  3.2587280000     -0.5651430000     -0.2743780000
C                  2.9331640000     -3.5885340000      2.0121470000
C                  1.5693070000     -3.5571060000      2.2774070000
C                  0.7539420000     -2.5652520000      1.7223140000
C                  1.3174270000     -1.6013710000      0.8961690000
O                  5.6655280000     -3.5405790000      1.3994270000
O                  2.5530070000      0.3029110000     -0.7617480000
H                  7.5130320000     -2.4186580000      0.1859560000
H                  4.6530510000      1.1114840000     -1.7989880000
H                  3.5805330000     -4.3472680000      2.4317360000
H                  0.7057520000     -0.8237900000      0.4551500000
I                  0.7160180000     -5.0213600000      3.5316450000
H                  8.5290740000     -0.6904410000     -1.2967030000
H                  7.0976270000      1.0765000000     -2.2901920000
H                 -0.3076290000     -2.5470920000      1.9334550000

H C O 0
6-311++G(d,p)
****
I 0
def2TZVP
****

I 0
def2TZVP





