$molecule
0 1
C                 -4.6763190000      0.2947090000     -0.0934400000
C                 -3.2249610000     -0.1047060000     -0.0262690000
C                 -2.8499550000     -1.4403520000     -0.0136090000
C                 -1.4997170000     -1.8189680000      0.0474150000
O                 -1.2255940000     -3.1294900000      0.0555130000
C                 -0.4924040000     -0.8247300000      0.0974190000
C                  0.9139680000     -1.1984730000      0.1605900000
O                  1.2493280000     -2.4134030000      0.1718760000
C                  1.9362830000     -0.1540120000      0.2105110000
C                  3.3094410000     -0.5002340000      0.2709590000
O                  3.7397070000     -1.7682590000      0.2859630000
C                  4.2784060000      0.5149540000      0.3178430000
C                  3.8971120000      1.8450220000      0.3053800000
C                  2.5459710000      2.2037860000      0.2461410000
C                  1.5735000000      1.2154400000      0.1990470000
C                  0.1377240000      1.6226540000      0.1359520000
O                 -0.1853140000      2.7990900000      0.1268100000
C                 -0.8865960000      0.5365930000      0.0843280000
C                 -2.2243660000      0.8843770000      0.0238710000
H                 -4.8717040000      0.8952980000     -0.9868790000
H                 -5.3326450000     -0.5762560000     -0.1178910000
H                 -4.9506850000      0.9060600000      0.7713480000
H                 -3.5911830000     -2.2302990000     -0.0505960000
H                 -0.2460650000     -3.2257490000      0.1003980000
H                  2.9454020000     -2.3500540000      0.2483380000
H                  5.3203430000      0.2225260000      0.3635250000
H                  4.6569060000      2.6175360000      0.3420510000
H                  2.2366330000      3.2406210000      0.2359010000
H                 -2.4832160000      1.9363170000      0.0159980000
$end

$rem
   BASIS  =  6-311++G(d,p)
   GUI  =  2
   JOB_TYPE  =  SP
   METHOD  =  B3LYP
   SCF_CONVERGENCE  = 8
   SOLVENT_METHOD = sm12
$end

$smx
   solvent dimethylformamide
   charges CM5
$end





