%chk=176-PCM.chk
%nproc=8
%mem=30GB
#P UB3LYP/6-311++G(d,p) SCRF=(PCM,Solvent=n,n-DiMethylFormamide)

Quinone PCM in DMF 

0 1
N                 -2.8958530000     -2.5429540000     -0.0840230000
C                 -2.5707520000     -1.2409180000      0.1266480000
C                 -3.6012020000     -0.3338530000      0.5059790000
C                 -3.3473460000      0.9863870000      0.7251790000
C                 -2.0380050000      1.5315910000      0.5892900000
N                 -1.8673730000      2.8636990000      0.7921810000
C                 -0.9843960000      0.6547310000      0.2393950000
C                  0.3711350000      1.1858330000      0.1268480000
O                  0.6353760000      2.3877760000      0.2568590000
C                  1.4778460000      0.2379720000     -0.1710250000
C                  1.2090380000     -1.1082480000     -0.4684100000
C                  2.2432020000     -1.9803420000     -0.8258790000
C                  3.5508590000     -1.5247170000     -0.8947330000
C                  3.8427510000     -0.1944620000     -0.5912700000
C                  2.8140220000      0.6570090000     -0.2248220000
N                  3.2346990000      2.0349280000      0.1473980000
O                  3.3319790000      2.2755020000      1.3383670000
O                  3.5438050000      2.7825270000     -0.7655740000
C                 -0.1786870000     -1.6462260000     -0.3885720000
O                 -0.3655920000     -2.8465460000     -0.6395870000
C                 -1.2541500000     -0.7400660000     -0.0012010000
H                 -3.8552340000     -2.8381950000     -0.0281840000
H                 -2.1646140000     -3.1740370000     -0.3908260000
H                 -4.6122200000     -0.7127700000      0.6161710000
H                 -4.1588000000      1.6506820000      1.0046480000
H                 -2.6315790000      3.4209870000      1.1335530000
H                 -0.9299010000      3.2430680000      0.7258230000
H                  1.9901110000     -3.0093200000     -1.0456190000
H                  4.3515310000     -2.1974000000     -1.1783450000
H                  4.8593470000      0.1773610000     -0.6302660000





