%chk=052-an.chk
%nproc=8
%mem=30GB
#P UB3LYP/6-311++G(d,p) nosym opt freq

Reduced

-2 1
C                  1.7958650000      2.7806570000      1.5204080000
C                  0.4134730000      2.7454720000      1.2711210000
C                 -0.1740150000      1.6539350000      0.6142800000
C                  0.6013950000      0.5231520000      0.1791090000
C                  2.0274800000      0.5991160000      0.4109220000
C                  2.5906610000      1.6999380000      1.0774330000
O                  2.3284930000      3.8063280000      2.2886040000
O                  0.0713400000     -0.4982340000     -0.3986450000
C                 -0.4488250000      3.8971960000      1.7431280000
C                 -1.6588020000      1.6155240000      0.3443500000
C                  2.8325330000     -0.5675930000     -0.1018870000
S                  4.3608660000      1.6972940000      1.4642550000
C                  4.9656700000      3.2937660000      0.7316090000
C                  5.4546190000      4.3532300000      1.7330530000
C                  4.9720740000      5.7932780000      1.3746990000
O                  5.8252300000      6.7086090000      1.3709260000
O                  3.7298520000      5.8919190000      1.1461920000
H                  0.1518170000      4.6169040000      2.2986620000
H                 -1.2654220000      3.5484380000      2.3897010000
H                 -0.9202280000      4.4200440000      0.8997860000
H                 -2.0096150000      2.5016590000     -0.2049490000
H                 -2.2573530000      1.5663010000      1.2682660000
H                 -1.8723870000      0.7217990000     -0.2463190000
H                  2.3772610000     -0.9306080000     -1.0284630000
H                  2.8090110000     -1.4196650000      0.5954310000
H                  3.8787390000     -0.2991230000     -0.2610760000
H                  4.1313270000      3.6831650000      0.1507130000
H                  5.7625260000      3.0276590000      0.0307750000
H                  6.5451350000      4.3454400000      1.8170400000
H                  5.0385630000      4.1247100000      2.7188400000
H                  2.7683660000      4.5208770000      1.7598590000


