%chk=048.chk
%nproc=8
%mem=30GB
#P UB3LYP/6-311++G(d,p) nosym opt freq

Oxidized

0 1
 C                 -1.55381500    0.32118300    0.90824200
 C                 -2.04168800    1.43170700    0.32852100
 C                 -1.07388800    2.36931500   -0.33416700
 O                 -1.46503100    3.39245800   -0.87570000
 C                  0.36519100    2.03128500   -0.31947000
 C                  0.85306200    0.92075600    0.26024600
 C                 -0.11474500   -0.01689300    0.92285600
 O                  0.27636700   -1.04017200    1.46415700
 H                  1.00135700    2.75442300   -0.81658800
 C                  2.30348500    0.52698100    0.30557000
 C                  3.28846900    1.48322400   -0.36895400
 C                  4.73930000    0.99655200   -0.26992400
 C                  5.74489900    1.94150200   -0.93824500
 C                  7.19331800    1.44760400   -0.83675100
 C                  8.25877100    2.40420600   -1.40535800
 C                  9.66889900    1.90086500   -1.06602800
 C                  8.11309300    2.61494500   -2.91948600
 C                 -3.49211000    1.82547500    0.28318700
 C                 -4.47699300    0.86967600    0.95848600
 C                 -5.92779800    1.35646600    0.85965400
 C                 -6.93332400    0.41191500    1.52864700
 C                 -8.38169600    0.90601000    1.42744300
 C                 -9.44714200   -0.05026000    1.99662600
 C                -10.85728400    0.45323600    1.65758900
 C                 -9.30104700   -0.26063200    3.51076500
 H                 -2.18997400   -0.40193700    1.40539600
 H                  2.39111800   -0.47521100   -0.13184800
 H                  2.57763100    0.38345500    1.35799900
 H                  3.21161000    2.47775700    0.08679400
 H                  3.02215700    1.60593000   -1.42569200
 H                  4.81941500    0.00130400   -0.72529800
 H                  5.00756700    0.86936700    0.78651600
 H                  5.66926200    2.93457500   -0.47597300
 H                  5.46459800    2.07162100   -1.98960200
 H                  7.28312400    0.47616100   -1.34242900
 H                  7.42454700    1.26045300    0.21956800
 H                  8.12454400    3.37845100   -0.91487400
 H                  9.80375200    1.78872900    0.01393700
 H                 10.43534200    2.59179900   -1.42944100
 H                  9.85669500    0.92511700   -1.52787000
 H                  8.88861900    3.28840500   -3.29615800
 H                  7.14581600    3.04832000   -3.18506700
 H                  8.21230900    1.66365100   -3.45474400
 H                 -3.76642900    1.96828300   -0.76930300
 H                 -3.57966300    2.82796100    0.71993000
 H                 -4.21035900    0.74747100    2.01520100
 H                 -4.40039900   -0.12509700    0.50321600
 H                 -6.19634400    1.48324000   -0.19676600
 H                 -6.00766900    2.35191400    1.31463300
 H                 -6.65270200    0.28213700    2.57996000
 H                 -6.85799000   -0.58133900    1.06671400
 H                 -8.61320900    1.09289900    0.37113900
 H                 -8.47120000    1.87761000    1.93287300
 H                 -9.31323400   -1.02465600    1.50635500
 H                -11.62373600   -0.23748400    2.02138800
 H                -10.99243200    0.56514000    0.57763700
 H                -11.04478000    1.42912400    2.11925700
 H                -10.07660200   -0.93382600    3.88785200
 H                 -9.39989500    0.69082400    4.04580500
 H                 -8.33378200   -0.69414600    3.77616400


