$molecule
-2 1
C                  1.0436720000      1.5747370000     -1.1233280000
C                 -0.1810110000      0.8561330000     -1.2109960000
C                 -0.4347510000     -0.3705920000     -0.5765290000
C                  0.5629650000     -1.0053590000      0.2508330000
C                  1.8160790000     -0.2826720000      0.3509150000
C                  2.0462270000      0.9338160000     -0.2956770000
C                  3.3720310000      1.6457880000     -0.1585110000
C                  2.8927410000     -0.9161610000      1.2022260000
O                  1.2524310000      2.7009010000     -1.7309840000
O                  0.3762210000     -2.1298520000      0.8612030000
H                 -0.9618630000      1.3067560000     -1.8238190000
H                  3.6009510000      1.9054710000      0.8868960000
H                  3.3269660000      2.5648650000     -0.7482670000
H                  4.2152860000      1.0344510000     -0.5158940000
H                  2.5043570000     -1.8547630000      1.6044500000
H                  3.1964890000     -0.2711700000      2.0414090000
H                  3.8094600000     -1.1277990000      0.6291520000
C                 -1.7651130000     -1.0078810000     -0.8273680000
C                 -1.7601660000     -2.4971570000     -1.1631140000
O                 -2.6476960000     -0.8384310000      0.4068080000
C                 -3.9541160000     -0.7318160000      0.2531010000
C                 -4.6659340000     -0.5073930000      1.5796450000
O                 -4.5656790000     -0.7869150000     -0.8034350000
H                 -2.2912590000     -0.4543090000     -1.6057330000
H                 -2.7805060000     -2.8671660000     -1.3076490000
H                 -1.2430580000     -3.0381530000     -0.3704860000
H                 -1.2058690000     -2.6380820000     -2.0978430000
H                 -3.9756020000     -0.5358470000      2.4213770000
H                 -5.4435590000     -1.2656230000      1.7085290000
H                 -5.1726440000      0.4631230000      1.5525410000
$end
$rem
   MAX_SCF_CYCLES=200
   BASIS  =  6-311++G(d,p)
   GUI  =  2
   JOB_TYPE  =  SP
   METHOD  =  B3LYP
   SOLVENT_METHOD = COSMO
$end
$solvent
   dielectric 37.219
   opticaldielectric 1.43
$end





