$molecule
-2 1
C                 -1.2517340000      2.8555330000      0.2604250000
C                 -2.5893440000      2.4779280000      0.1724600000
C                 -2.9445290000      1.1339150000     -0.0800800000
C                 -0.1876550000      1.9257370000      0.1033800000
C                 -0.5789610000      0.5493530000     -0.1836210000
C                 -1.9575340000      0.1863930000     -0.2299740000
C                  1.2349390000      2.2984180000      0.1757860000
C                  2.1225230000      1.2228500000     -0.1359350000
C                  1.7238980000     -0.0795960000     -0.4521810000
C                  0.3714990000     -0.4852020000     -0.4972160000
O                  1.6647210000      3.4656670000      0.4841070000
O                 -0.0336620000     -1.6840730000     -0.8144690000
O                 -0.9760990000      4.1900580000      0.5011670000
H                 -3.9914920000      0.8464870000     -0.1264460000
H                  2.4762060000     -0.8328970000     -0.6884290000
C                 -2.3578730000     -1.2430470000     -0.4057010000
O                 -3.0082700000     -1.6982690000     -1.3310120000
O                 -2.2114320000     -1.9549560000      0.7722420000
C                 -2.1688500000     -3.3645870000      0.6003080000
H                 -3.3639650000      3.2288010000      0.3295140000
H                  3.1832210000      1.4710750000     -0.1107160000
H                 -1.8184910000      4.6512720000      0.4082430000
H                 -2.0277610000     -3.7891390000      1.5982830000
H                 -1.3175140000     -3.6096430000     -0.0410770000
H                 -3.0962910000     -3.7482210000      0.1595320000
$end

$rem
   BASIS  =  6-311++G(d,p)
   GUI  =  2
   JOB_TYPE  =  SP
   METHOD  =  B3LYP
   SCF_CONVERGENCE  = 8
   SOLVENT_METHOD = sm12
$end

$smx
   solvent dimethylformamide
   charges CM5
$end





