%chk=048-rad.chk
%nproc=8
%mem=30GB
#P UB3LYP/6-311++G(d,p) nosym  opt freq

Radical

-1 2
C   -1.6049074    0.3524075    0.8513198
  C   -2.0566493    1.4801033    0.2575465
  C   -1.0668924    2.3890629   -0.3863244
  O   -1.4381304    3.4165037   -0.9333416
  C    0.3774818    2.0602173   -0.3697274
  C    0.8270942    0.9325843    0.2252698
  C   -0.1625947    0.0228366    0.8659147
  O    0.2078343   -1.0053963    1.4121315
  H    1.0540060    2.7571453   -0.8508908
  C    2.2971933    0.5380782    0.2790798
  C    3.2846644    1.5086237   -0.3895111
  C    4.7240607    0.9945974   -0.2571465
  C    5.7216770    1.9550968   -0.9161583
  C    7.1598938    1.4316903   -0.7679222
  C    8.2292001    2.3868183   -1.3470805
  C    9.6289311    1.8361736   -1.0414467
  C    8.0793673    2.5869107   -2.8634442
  C   -3.5294267    1.8716094    0.2138343
  C   -4.5002544    0.8965488    0.9006477
  C   -5.9489546    1.3903487    0.8031707
  C   -6.9058297    0.4113705    1.4959717
  C   -8.3601923    0.8995031    1.4020511
  C   -9.3800810   -0.0841323    2.0229859
  C  -10.8053636    0.4280754    1.7755312
  C   -9.1642184   -0.2820771    3.5320359
  H   -2.2775024   -0.3459744    1.3352392
  H    2.3999186   -0.4561646   -0.2081687
  H    2.5803630    0.4361166    1.3495727
  H    3.2109290    2.5047610    0.0999070
  H    3.0329471    1.6071111   -1.4684667
  H    4.8030488   -0.0037818   -0.7416868
  H    4.9759340    0.8889974    0.8213555
  H    5.6443687    2.9527484   -0.4306510
  H    5.4577640    2.0535122   -1.9895527
  H    7.2447932    0.4345747   -1.2545813
  H    7.3633092    1.3057770    0.3190029
  H    8.1361978    3.3766108   -0.8475355
  H    9.7690140    1.7262905    0.0552311
  H   10.4082184    2.5330828   -1.4174959
  H    9.7754335    0.8441284   -1.5209071
  H    8.8751168    3.2659465   -3.2376809
  H    7.1078961    3.0579154   -3.1135753
  H    8.1601738    1.6154946   -3.3969598
  H   -3.8260942    1.9692691   -0.8532866
  H   -3.6314040    2.8664322    0.6999071
  H   -4.2259215    0.8033008    1.9746651
  H   -4.4270930   -0.0999806    0.4117855
  H   -6.2327663    1.4884137   -0.2679531
  H   -6.0306114    2.3882951    1.2879646
  H   -6.6023105    0.3204658    2.5594745
  H   -6.8239514   -0.5854516    1.0093593
  H   -8.6081281    1.0194918    0.3238255
  H   -8.4511982    1.8942044    1.8923762
  H   -9.2809734   -1.0709482    1.5186512
  H  -11.5490202   -0.2905395    2.1818988
  H  -10.9929193    0.5345301    0.6857102
  H  -10.9593332    1.4151543    2.2627101
  H   -9.9262092   -0.9821079    3.9366218
  H   -9.2484236    0.6861985    4.0706391
  H   -8.1721191   -0.7287463    3.7426943







