%chk=033-rad.chk
%nproc=8
%mem=30GB
#P UB3LYP/6-311++G(d,p) nosym  opt freq

Radical

-1 2
C                 -1.7955590000      1.1241900000      0.6359580000
C                 -1.1416430000     -0.0937090000     -0.0613990000
C                 -1.6846580000     -1.3676970000      0.6135760000
C                 -1.5748420000     -0.1265460000     -1.5474920000
C                  0.3919340000      0.0155710000      0.0309240000
C                  1.1542140000     -0.9437580000      0.6574870000
C                  2.5987690000     -0.9021870000      0.7792170000
O                  3.2478450000     -1.8159880000      1.3682590000
C                  3.2345990000      0.2494110000      0.1832040000
C                  2.5026780000      1.2187170000     -0.4459660000
C                  1.0612610000      1.1784430000     -0.5679450000
O                  0.4392390000      2.1100850000     -1.1644650000
H                 -2.8890250000      1.0631120000      0.5616110000
H                 -1.5289910000      1.1437610000      1.6979950000
H                 -1.4576760000      2.0514250000      0.1738420000
H                 -2.7758690000     -1.3918070000      0.5173630000
H                 -1.4419640000     -1.3991240000      1.6798000000
H                 -1.2877000000     -2.2754580000      0.1497500000
H                 -1.1491600000     -1.0019410000     -2.0493270000
H                 -2.6680390000     -0.1898160000     -1.6237650000
H                 -1.2324960000      0.7713360000     -2.0613840000
H                  0.6962030000     -1.8155450000      1.1107390000
H                  4.3171510000      0.3130510000      0.2557190000
H                  2.9837280000      2.0844740000     -0.8937010000


