$molecule
-2 1
C                  5.7947660000     -5.1056190000      1.2602130000
C                  6.7865390000     -5.0510130000      0.3118590000
C                  6.6689280000     -4.1199000000     -0.7826290000
C                  4.6392070000     -4.2784540000      1.2183050000
C                  4.5205450000     -3.3378820000      0.1126650000
C                  5.5378660000     -3.2935300000     -0.8450970000
C                  3.6384000000     -4.3860990000      2.2428970000
C                  2.5208630000     -3.4912150000      2.0798290000
C                  2.3933030000     -2.5759510000      1.0150990000
C                  3.3745840000     -2.4439240000     -0.0236970000
O                  3.7308770000     -5.2185630000      3.2329480000
O                  3.2637440000     -1.6106750000     -0.9984570000
C                  7.6796810000     -4.0490330000     -1.7686810000
N                  8.5326230000     -4.0152600000     -2.5672570000
H                  5.8580630000     -5.7974070000      2.0947810000
H                  7.6582290000     -5.6966040000      0.3712610000
H                  5.4176360000     -2.5814460000     -1.6553240000
C                  1.4436500000     -3.5722070000      3.1371330000
C                  1.1846210000     -1.6728420000      0.9230290000
H                  1.7341750000     -4.3393590000      3.8587000000
H                  0.4617260000     -3.8327570000      2.7127910000
H                  1.3067610000     -2.6167020000      3.6668740000
H                  0.2417970000     -2.2373570000      0.8465100000
H                  1.2910980000     -1.0485540000      0.0327930000
H                  1.0800160000     -1.0181750000      1.8026130000
$end
$rem
   MAX_SCF_CYCLES=200
   BASIS  =  6-311++G(d,p)
   GUI  =  2
   JOB_TYPE  =  SP
   METHOD  =  B3LYP
   SOLVENT_METHOD = COSMO
$end
$solvent
   dielectric 37.219
   opticaldielectric 1.43
$end





