$molecule
-2 1
C                  0.2766900000      1.7404340000     -1.6724990000
C                 -1.0846940000      2.0313650000     -2.0699640000
C                 -1.9822750000      1.0631570000     -2.4480130000
C                 -1.6752920000     -0.3593010000     -2.5023770000
C                 -0.3464300000     -0.6526320000     -2.1374850000
C                  0.6289480000      0.3288860000     -1.7465610000
O                  1.0515070000      2.6774790000     -1.2739970000
O                 -2.5768330000     -1.2168280000     -2.8645070000
C                  3.1125020000      0.8208670000     -1.1358510000
C                  4.0898890000      1.0058510000     -2.1191110000
C                  3.3423260000      1.3434490000      0.1528380000
C                  4.5334720000      2.0276490000      0.4069080000
C                  5.2645510000      1.7128440000     -1.8623040000
C                  5.4958130000      2.2244280000     -0.5868960000
H                 -1.3743680000      3.0815940000     -2.0388880000
H                 -2.9986340000      1.3432490000     -2.7312540000
H                 -0.0230450000     -1.6882370000     -2.1643280000
H                  3.9149800000      0.5856790000     -3.1043000000
H                  4.7031810000      2.4315030000      1.4032590000
H                  5.9981260000      1.8565870000     -2.6527280000
H                  6.4095030000      2.7709630000     -0.3659650000
C                  1.9616270000     -0.1291810000     -1.4526820000
O                  2.3253480000     -1.3320630000     -1.4726900000
C                  2.2874210000      1.2209790000      1.2203660000
H                  1.9228800000      0.1938260000      1.3098270000
H                  1.4397810000      1.8518300000      0.9313410000
H                  2.6701570000      1.5463820000      2.1946690000
$end
$rem
   MAX_SCF_CYCLES=200
   BASIS  =  6-311++G(d,p)
   GUI  =  2
   JOB_TYPE  =  SP
   METHOD  =  B3LYP
   SOLVENT_METHOD = COSMO
$end
$solvent
   dielectric 37.219
   opticaldielectric 1.43
$end





