%chk=142-rad.chk
%nproc=8
%mem=30GB
#P UB3LYP/6-311++G(d,p) nosym opt freq

Radical

-1 2
C         -3.27156        3.65394        0.08660
C         -4.51735        3.01959        0.09209
C         -4.57623        1.62539        0.06853
C         -2.08965        2.90284        0.05681
C         -2.15259        1.51251        0.03303
C         -3.39728        0.87251        0.03907
C         -0.78361        3.59221        0.05055
C          0.45407        2.78712        0.01881
C          0.38980        1.39685       -0.00476
C         -0.91558        0.70737        0.00147
C          1.69965        3.42778        0.01255
C          2.88233        2.68293       -0.01680
C          2.81367        1.28918       -0.04059
C          1.57088        0.64648       -0.03461
O         -0.72764        4.81572        0.07135
O         -0.97157       -0.51659       -0.01931
H         -3.45578       -0.21477        0.02088
H          1.52987       -0.44158       -0.05335
H         -3.22714        4.74201        0.10535
H          1.75476        4.51537        0.03086
O          4.02654        3.43025       -0.01946
C          5.26149        2.72503       -0.04180
O         -5.58858        3.86771        0.12168
H          3.70632        0.67172       -0.06425
H          6.06856        3.46395       -0.03773
H          5.35907        2.12970       -0.95560
H          5.37578        2.10153        0.85106
C         -6.88281        3.27790        0.11727
H         -5.52155        1.09154        0.07259
H         -7.61906        4.08714        0.13860
H         -7.03844        2.66196        1.00910
H         -7.04948        2.69950       -0.79743






