%chk=020-rad.chk
%nproc=8
%mem=30GB
#P UB3LYP/6-311++G(d,p) nosym  opt freq

Radical

-1 2
C                 -2.0288920000      0.3614650000      1.5329110000
C                 -2.9131510000      1.1971800000      0.7104610000
C                 -2.5197310000      1.5058620000     -0.5665460000
C                 -1.2819910000      1.0751190000     -1.1997690000
C                 -0.3979090000      0.2390680000     -0.3774690000
C                 -0.7913170000     -0.0695190000      0.8995990000
O                 -0.9771470000      1.3911260000     -2.3746000000
O                 -2.3339690000      0.0452590000      2.7076430000
Br                 0.3148780000     -1.1717410000      2.0641210000
Br                -3.6260640000      2.6079480000     -1.7310340000
C                  0.9093900000     -0.2360000000     -0.9983200000
C                  1.8496920000      0.9348980000     -1.3460500000
C                  0.6780670000     -1.1558650000     -2.2133720000
C                 -4.2204870000      1.6717450000      1.3315360000
C                 -3.9890090000      2.5910720000      2.5469720000
C                 -5.1602790000      0.5002980000      1.6788710000
H                  1.4143340000     -0.8338750000     -0.2390380000
H                  2.0518080000      1.5447160000     -0.4601700000
H                  1.4086460000      1.5717070000     -2.1134580000
H                  2.8078290000      0.5482610000     -1.7134050000
H                  0.0580860000     -2.0139470000     -1.9361650000
H                  1.6378560000     -1.5392620000     -2.5797710000
H                  0.1828640000     -0.6149880000     -3.0203280000
H                 -4.7257340000      2.2698070000      0.5726060000
H                 -4.9487960000      2.9735420000      2.9143330000
H                 -3.3698810000      3.4497890000      2.2698090000
H                 -3.4928850000      2.0499780000      3.3532180000
H                 -6.1182780000      0.8863080000      2.0472390000
H                 -4.7185040000     -0.1370270000      2.4454300000
H                 -5.3628450000     -0.1087360000      0.7925470000


