%chk=291-an.chk
%nproc=8
%mem=30GB
#P UB3LYP/6-311++G(d,p) nosym opt freq

Reduced

-2 1
C          0.11888        4.00397        0.01878
C         -1.13335        3.55410        0.44345
C         -1.42419        2.18942        0.43983
C          1.09367        3.08621       -0.41464
C          0.80150        1.71195       -0.41860
C         -0.46379        1.27002        0.01148
C          2.42657        3.54331       -0.86774
C          3.45266        2.56030       -1.32386
C          3.17885        1.22177       -1.33284
C          1.83273        0.74982       -0.87621
O          2.69168        4.73684       -0.86806
O          1.57865       -0.44692       -0.87994
H          0.32437        5.06706        0.02952
H         -1.87915        4.26464        0.77588
H         -2.39526        1.84311        0.76946
H         -0.71044        0.21570        0.01684
O          4.65600        3.02991       -1.72370
H          4.88081        3.97057       -1.72854
C          4.14783        0.11635       -1.77658
C          5.54655        0.52437       -2.27979
C          6.40982       -0.66626       -2.77604
C          7.71872       -0.10299       -3.38895
C          8.60835       -1.16924       -4.05221
C          9.83798       -0.51975       -4.70979
C         10.73904       -1.52650       -5.46369
C         11.86389       -0.76955       -6.18308
C          6.70341       -1.66877       -1.64126
C         11.35195       -2.58265       -4.52982
H          3.65269       -0.44731       -2.59731
H          4.26571       -0.55765       -0.90502
H          6.09575        1.05574       -1.47168
H          5.40041        1.20702       -3.14551
H          5.84854       -1.19231       -3.58018
H          8.30083        0.43095       -2.60516
H          7.44109        0.63366       -4.17557
H          8.01891       -1.70204       -4.83010
H          8.94741       -1.89299       -3.28816
H         10.43536        0.01257       -3.93644
H          9.47298        0.23188       -5.44483
H         10.13011       -2.04644       -6.23619
H         11.43718       -0.03116       -6.89512
H         12.49591       -1.47720       -6.76124
H         12.50598       -0.23164       -5.45243
H          7.28874       -2.53341       -2.00982
H          5.76959       -2.10130       -1.23313
H          7.26453       -1.17471       -0.81960
H         10.56761       -3.20472       -4.05458
H         11.96197       -2.09809       -3.73744
H         12.00328       -3.27055       -5.11028







