$molecule
-2 1
C                 -4.8343240000      1.1252120000     -1.5815710000
C                 -3.5990510000      0.6094170000     -0.8837880000
C                 -3.7257950000     -0.2325300000      0.2559280000
C                 -2.6282210000     -0.7233780000      0.9432870000
C                 -2.8979050000     -1.6096240000      2.1425260000
C                 -1.2967360000     -0.3978800000      0.5073360000
C                 -0.1166000000     -0.9058830000      1.1833790000
O                 -0.1685850000     -1.6857960000      2.2001830000
C                  1.1629770000     -0.4744840000      0.6401560000
C                  2.3303720000     -0.9508530000      1.2907760000
C                  3.5992640000     -0.6296650000      0.8686130000
C                  4.8344620000     -1.1376220000      1.5722460000
C                  3.7258170000      0.2295130000     -0.2581980000
C                  2.6280730000      0.7369640000     -0.9331080000
C                  2.8975600000      1.6428170000     -2.1176500000
C                  1.2967770000      0.3923870000     -0.5114480000
C                  0.1168240000      0.8834820000     -1.2001450000
O                  0.1689870000      1.6416560000     -2.2332560000
C                 -1.1628960000      0.4661570000     -0.6463710000
C                 -2.3302670000      0.9414330000     -1.2978280000
H                 -5.4661460000      0.3097110000     -1.9561310000
H                 -5.4739590000      1.7249810000     -0.9096710000
H                 -4.5702530000      1.7582670000     -2.4344390000
H                 -4.7227700000     -0.5068250000      0.5997440000
H                 -2.4642750000     -2.6036560000      2.0124860000
H                 -2.4282840000     -1.2159100000      3.0459240000
H                 -3.9821020000     -1.6963880000      2.2989290000
H                  2.1673450000     -1.5921440000      2.1513290000
H                  5.4820870000     -1.7158870000      0.9008870000
H                  4.5705590000     -1.7833890000      2.4155800000
H                  5.4579940000     -0.3157080000      1.9672030000
H                  4.7228750000      0.4956680000     -0.6081220000
H                  3.9812170000      1.7827880000     -2.2341310000
H                  2.4138810000      2.6141040000     -1.9980330000
H                  2.4784010000      1.2333760000     -3.0394640000
H                 -2.1673030000      1.5896910000     -2.1531580000
$end
$rem
   MAX_SCF_CYCLES=200
   BASIS  =  6-311++G(d,p)
   GUI  =  2
   JOB_TYPE  =  SP
   METHOD  =  B3LYP
   SOLVENT_METHOD = PCM
$end
$pcm
   theory = CPCM
$end
$solvent
   dielectric 37.219
   opticaldielectric 1.43
$end





