$molecule
0 1
C                  4.7184490000      0.1112400000      1.0138670000
C                  3.9615600000     -0.6112410000     -0.1157340000
C                  4.6135960000     -0.3414800000     -1.4842090000
C                  2.4816980000     -0.2631250000     -0.1173710000
C                  2.0302730000      1.0469540000     -0.3384560000
C                  0.6779860000      1.3630420000     -0.3441760000
C                 -0.3045310000      0.3849640000     -0.1232430000
C                  0.1486080000     -0.9249330000      0.1241890000
C                  1.5139790000     -1.2346900000      0.1131170000
C                 -0.8195660000     -1.9989260000      0.4283840000
O                 -0.5312040000     -3.1755540000      0.4599260000
C                 -2.2685650000     -1.5648710000      0.7698390000
O                 -2.9553420000     -2.3342140000      1.4090570000
C                 -2.7258440000     -0.2414460000      0.2795290000
C                 -4.1086460000      0.0722660000      0.2476640000
C                 -5.1887360000     -0.8713940000      0.7141050000
C                 -4.4937850000      1.3173490000     -0.2558810000
C                 -3.5524530000      2.2341490000     -0.7069470000
C                 -2.1984460000      1.9286060000     -0.6637970000
C                 -1.7568560000      0.6961420000     -0.1705320000
H                  4.2775310000     -0.1075990000      1.9895720000
H                  4.7026980000      1.1964390000      0.8742980000
H                  5.7653550000     -0.2047050000      1.0351620000
H                  4.0316030000     -1.6873350000      0.0763390000
H                  4.0980570000     -0.8815790000     -2.2822060000
H                  5.6597610000     -0.6605160000     -1.4782950000
H                  4.5937440000      0.7239910000     -1.7328050000
H                  2.7476030000      1.8430280000     -0.5074370000
H                  0.3966800000      2.3939850000     -0.5121390000
H                  1.7972080000     -2.2643620000      0.3020150000
H                 -5.1335270000     -1.0378410000      1.7917930000
H                 -6.1699520000     -0.4591240000      0.4707110000
H                 -5.0952920000     -1.8578390000      0.2557590000
H                 -5.5487990000      1.5638320000     -0.2982240000
H                 -3.8747120000      3.1917650000     -1.1006620000
H                 -1.4899340000      2.6554230000     -1.0358670000
$end

$rem
   BASIS  =  6-311++G(d,p)
   GUI  =  2
   JOB_TYPE  =  SP
   METHOD  =  B3LYP
   SCF_CONVERGENCE  = 8
   SOLVENT_METHOD = sm12
$end

$smx
   solvent dimethylformamide
   charges CM5
$end





