%chk=134.chk
%nproc=8
%mem=30GB
#P UB3LYP/6-311++G(d,p) nosym opt freq

Oxidized

0 1
C          7.12549       -1.81822       -0.58959
C          7.64266       -0.79488       -1.44062
C          6.80779        0.27453       -1.84898
C          5.47686        0.31871       -1.42529
C          4.95383       -0.67280       -0.59334
C          5.75633       -1.73442       -0.15906
C          5.12710       -2.73842        0.75922
C          3.68771       -2.65170        1.08517
C          2.91718       -1.59498        0.62170
C          3.53154       -0.55162       -0.20686
C          3.09206       -3.64227        1.88133
C          1.73521       -3.56872        2.20289
C          0.96618       -2.50597        1.73420
C          1.55486       -1.51797        0.94471
O          5.75987       -3.64756        1.28247
O          2.86070        0.40474       -0.57990
H          4.83579        1.13913       -1.74916
H          3.68350       -4.47631        2.25619
H          0.94967       -0.68845        0.58261
C          7.29636        1.38668       -2.74527
H         -0.09066       -2.44482        1.98392
C          8.99138       -0.86516       -1.86945
C          8.02630       -2.85997       -0.23868
C          9.35263       -2.90436       -0.67772
C          9.84843       -1.90405       -1.49821
C         11.27089       -1.94972       -1.96908
H          1.28103       -4.34041        2.82048
H          8.13126        1.91648       -2.27531
H          6.51177        2.12675       -2.93720
H          7.60827        0.98508       -3.71478
H          9.39725       -0.08988       -2.51671
H          7.71817       -3.68678        0.39510
H          9.98683       -3.73226       -0.36784
H         11.51005       -1.09729       -2.61331
H         11.44880       -2.86417       -2.54416
H         11.95258       -1.92448       -1.11281








