$molecule
-1 2
C                 -2.1949330000     -3.8644980000      1.2071330000
C                 -0.7561110000     -3.8674730000      1.3897640000
C                 -0.0178930000     -2.7361080000      1.5864910000
C                 -0.6137980000     -1.4186920000      1.6289290000
C                 -2.0602370000     -1.3852650000      1.4374620000
C                 -2.7866120000     -2.5329590000      1.2471670000
O                 -2.8579090000     -4.9159620000      1.0352530000
O                  0.0530510000     -0.3669920000      1.8136910000
Cl                -4.5419950000     -2.4446400000      1.0503480000
C                 -2.6911470000     -0.0290870000      1.4429410000
O                 -2.9231360000      0.6494380000      0.4716580000
O                 -2.9711480000      0.3798080000      2.7044040000
C                 -3.5084010000      1.7016530000      2.8188320000
H                 -0.2867440000     -4.8464510000      1.3624610000
H                  1.0586040000     -2.7815080000      1.7221240000
H                 -3.6597080000      1.8650380000      3.8851970000
H                 -4.4561320000      1.7830530000      2.2817400000
H                 -2.8071200000      2.4356070000      2.4163050000
$end

$rem
   BASIS  =  6-311++G(d,p)
   GUI  =  2
   JOB_TYPE  =  SP
   METHOD  =  B3LYP
   SCF_CONVERGENCE  = 8
   SOLVENT_METHOD = sm12
$end

$smx
   solvent dimethylformamide
   charges CM5
$end





