%chk=146-an.chk
%nproc=8
%mem=30GB
#P UB3LYP/6-311++G(d,p) nosym opt freq SCRF=(PCM,Solvent=n,n-DiMethylFormamide)

Reduced

-2 1
C                  2.1361720000      3.0141000000      1.2358810000
C                  2.0600120000      1.5442680000      1.5794370000
O                  1.7023270000      1.1087660000      2.6494460000
O                  2.7683680000      0.8137350000      0.6588930000
C                  2.4598590000     -0.5471290000      0.5135410000
C                  3.5054000000     -1.4176320000      0.7001430000
C                  3.3161040000     -2.8071700000      0.4758670000
C                  2.0805600000     -3.2572730000      0.0746010000
C                  0.9872080000     -2.3785010000     -0.1330560000
C                 -0.2593260000     -2.9490200000     -0.5912240000
O                 -0.4128220000     -4.2089400000     -0.7781130000
C                 -1.3111430000     -1.9916580000     -0.8507500000
C                 -2.5367550000     -2.4872070000     -1.3612630000
C                 -3.5901640000     -1.6628980000     -1.6791830000
C                 -3.4461230000     -0.2626330000     -1.4897280000
C                 -2.2730680000      0.2404710000     -0.9867730000
O                 -2.1881230000      1.6496230000     -0.9452060000
C                 -2.1982640000      2.2824430000      0.2511800000
C                 -1.6256770000      3.6705840000      0.0937940000
O                 -2.6927810000      1.8461270000      1.2620930000
C                 -1.1406980000     -0.5593920000     -0.6312950000
C                  0.0878670000     -0.0048180000     -0.1224850000
O                  0.2330140000      1.2695940000      0.1278270000
C                  1.1542380000     -0.9508350000      0.0896470000
H                  1.9304030000      3.1563000000      0.1768930000
H                  1.4109170000      3.5564030000      1.8415400000
H                  3.1446530000      3.3822040000      1.4667970000
H                  4.4626970000     -1.0160510000      1.0174930000
H                  4.1421160000     -3.4986100000      0.6265900000
H                  1.8859800000     -4.3083340000     -0.1104210000
H                 -2.5909750000     -3.5624560000     -1.4952940000
H                 -4.5207260000     -2.0660660000     -2.0716590000
H                 -4.2437070000      0.4306520000     -1.7378360000
H                 -1.7533650000      4.2309580000      1.0201930000
H                 -0.5678980000      3.5497130000     -0.1422040000
H                 -2.1162800000      4.1906800000     -0.7353670000


