%chk=276-an.chk
%nproc=8
%mem=30GB
#P UB3LYP/6-311++G(d,p) nosym opt freq SCF=YQC

Reduced

-2 1
C     4.3431867301    0.0412330713   -0.1416150148
S     3.1137219828   -1.2811732865   -0.2832910167
C     1.4863370714   -0.5354498675   -0.1286160561
C     1.3638323294    0.7691215414    0.0541738898
C     0.0868138608    1.4440303926    0.1878562720
O    -0.0362687465    2.6778864126    0.3609807614
C    -1.1315831881    0.6316010669    0.1157481738
C    -2.3772310893    1.2404443741    0.2393550160
C    -3.5147475011    0.4747118058    0.1710318602
C    -3.4146398579   -0.8760757394   -0.0173798343
C    -2.2013812996   -1.4977798245   -0.1417036644
C    -1.0359811403   -0.7250516318   -0.0733169160
C     0.2752095550   -1.3349908405   -0.1991904322
O     0.3380825647   -2.5833830933   -0.3723570737
H     4.0545180240    0.8233190086   -0.8924732937
H     5.3706061040   -0.3423315005   -0.3415960688
H     4.2953376714    0.5308682313    0.8714351378
H     2.2880572026    1.3601950287    0.1053888092
H    -2.4036663207    2.3190734736    0.3880823426
H    -4.4993787797    0.9422479676    0.2668553275
H    -4.3173090522   -1.5028594223   -0.0742273709
H    -2.0835161207   -2.5756371679   -0.2932785366


