%chk=334-rad.chk
%nproc=8
%mem=30GB
#P UB3LYP/6-311++G(d,p) nosym  opt freq

Radical

-1 2
C                 -1.08949300    0.77876800   -3.07154000
 C                 -1.92010400    1.07545600   -1.91629100
 C                  0.31703500    0.64351200   -2.73105300
 C                  0.76083900    0.47973700   -1.44563000
 C                 -0.20731100    0.24849900   -0.36818800
 C                 -1.48867900    0.91413900   -0.62633600
 C                  0.05922500   -0.54979700    0.78703900
 C                 -0.90894000   -0.78106200    1.86446500
 C                  1.34058300   -1.21547300    1.04516900
 C                 -0.46514800   -0.94494700    3.14988000
 C                  1.77196700   -1.37692100    2.33512500
 C                  0.94135900   -1.08028700    3.49037700
 O                 -1.51320800    0.80472900   -4.24870900
 O                  1.36506300   -1.10630100    4.66755700
 C                  2.22641600    0.79681700   -1.16418200
 C                  2.49799700    2.31274100   -1.25613600
 C                  3.95557600    2.67546100   -0.94926700
 C                  4.23492700    4.17934500   -1.03930200
 C                  2.10023500   -1.96272300   -0.04673700
 C                  1.84785400   -3.48239300    0.03702600
 C                  2.57065100   -4.26687800   -1.06407300
 C                  2.32621200   -5.77760600   -0.98844200
 C                 -2.37456400   -1.09801700    1.58302200
 C                 -2.64648600   -2.61382700    1.67563100
 C                 -4.10409200   -2.97637400    1.36867800
 C                 -4.38378100   -4.48015400    1.45936200
 C                 -2.24824000    1.66150600    0.46553000
 C                 -1.99542200    3.18112100    0.38183900
 C                 -2.71816400    3.96579100    1.48284000
 C                 -2.47328700    5.47645200    1.40726900
 H                 -2.87999500    1.54297900   -2.12042700
 H                  1.02528800    0.78881600   -3.54277700
 H                 -1.17341200   -1.09026500    3.96159100
 H                  2.73184800   -1.84447300    2.53924100
 H                  2.87552200    0.28069900   -1.88167600
 H                  2.52211900    0.46992100   -0.16927300
 H                  1.83717500    2.83539000   -0.55425400
 H                  2.23054300    2.67378800   -2.25531100
 H                  4.61542100    2.14051400   -1.64447300
 H                  4.21530300    2.31578500    0.05370400
 H                  4.01471800    4.56250900   -2.04121400
 H                  5.28206600    4.40880500   -0.81710800
 H                  3.61473800    4.73781500   -0.33069700
 H                  3.17801800   -1.78123800    0.04247200
 H                  1.79937000   -1.63415500   -1.03953800
 H                  0.76925500   -3.66767900   -0.03192300
 H                  2.16006800   -3.85290200    1.01961300
 H                  3.64850000   -4.06903000   -1.00099600
 H                  2.25027600   -3.89435400   -2.04457500
 H                  2.66624400   -6.18516400   -0.03062000
 H                  2.85466100   -6.31173500   -1.78466900
 H                  1.26035600   -6.00893900   -1.08374100
 H                 -2.67003000   -0.77150100    0.58791100
 H                 -3.02370100   -0.58142600    2.30014800
 H                 -2.37929100   -2.97449700    2.67501200
 H                 -1.98565600   -3.13695300    0.97410900
 H                 -4.36356900   -2.61710400    0.36549700
 H                 -4.76394000   -2.44095900    2.06352300
 H                 -3.76358400   -5.03908900    0.75113000
 H                 -5.43092900   -4.70949200    1.23708500
 H                 -4.16383500   -4.86290000    2.46149200
 H                 -1.94762400    1.33285600    1.45837000
 H                 -3.32605700    1.48032100    0.37612200
 H                 -2.30738900    3.55170700   -0.60079800
 H                 -0.91678400    3.36609900    0.45096000
 H                 -2.39803900    3.59316400    2.46338500
 H                 -3.79606000    3.76825000    1.41959800
 H                 -1.40738000    5.70748200    1.50272900
 H                 -3.00170400    6.01072100    2.20342300
 H                 -2.81306100    5.88411900    0.44940200










