$molecule
0 1
C                  5.7400620000     -5.3619530000      1.3229850000
C                  6.7079570000     -5.1911710000      0.3275620000
C                  6.6182800000     -4.1847540000     -0.6181560000
C                  4.6526950000     -4.4605450000      1.3307860000
C                  4.5603390000     -3.4233980000      0.3563520000
C                  5.5542700000     -3.2767670000     -0.6364330000
C                  3.5852790000     -4.5927230000      2.3706350000
C                  2.4592020000     -3.6333240000      2.3522230000
C                  2.3728680000     -2.6624090000      1.4403140000
C                  3.3975070000     -2.4826430000      0.3883770000
O                  3.5995190000     -5.4572850000      3.2363020000
O                  3.2536020000     -1.5710120000     -0.4149220000
C                  5.9332400000     -6.4904930000      2.3057860000
H                  7.5530730000     -5.8706750000      0.2998380000
H                  1.5542560000     -1.9515790000      1.4135280000
C                  5.5524260000     -2.2169210000     -1.7104180000
H                  7.3947070000     -4.0934980000     -1.3701840000
H                  6.8548230000     -7.0266980000      2.0696060000
H                  5.0995680000     -7.1947570000      2.2839290000
H                  5.9889800000     -6.1281970000      3.3338830000
H                  1.7167400000     -3.7783440000      3.1293010000
H                  5.5523040000     -1.2106350000     -1.2874810000
H                  4.6605710000     -2.2755510000     -2.3369480000
H                  6.4359810000     -2.3347360000     -2.3413230000
$end
$rem
   MAX_SCF_CYCLES=200
   BASIS  =  6-311++G(d,p)
   GUI  =  2
   JOB_TYPE  =  SP
   METHOD  =  B3LYP
   SOLVENT_METHOD = PCM
$end
$pcm
   theory = CPCM
$end
$solvent
   dielectric 37.219
   opticaldielectric 1.43
$end






