$molecule
-1 2
C                 -0.5023700000      1.1678580000     -0.3632110000
C                 -1.4682240000      0.1396970000     -0.7998210000
C                 -1.2925290000     -1.1778630000     -0.5005800000
C                 -0.1588780000     -1.6742140000      0.2596550000
C                  0.7736630000     -0.6724010000      0.6956900000
C                  0.6302440000      0.6874280000      0.4416500000
O                 -0.6654350000      2.3536240000     -0.7176740000
O                 -0.0110310000     -2.9036000000      0.5208200000
C                  1.6203650000      1.6357660000      1.0033060000
C                  3.0068100000      1.0843860000      1.3713350000
O                  1.4006120000      2.8206540000      1.2105690000
H                  3.4179830000      0.4407390000      0.5898320000
H                  2.9539240000      0.4925840000      2.2911770000
H                  3.6680600000      1.9338600000      1.5451200000
H                  1.6086710000     -1.0433580000      1.2796940000
C                 -2.6428260000      0.6254660000     -1.6057080000
H                 -2.0107510000     -1.9239370000     -0.8342240000
H                 -3.2150060000      1.3748350000     -1.0491860000
H                 -3.3041240000     -0.2035720000     -1.8726700000
H                 -2.3080100000      1.1247080000     -2.5208050000
$end

$rem
   BASIS  =  6-311++G(d,p)
   GUI  =  2
   JOB_TYPE  =  SP
   METHOD  =  B3LYP
   SCF_CONVERGENCE  = 8
   SOLVENT_METHOD = sm12
$end

$smx
   solvent dimethylformamide
   charges CM5
$end





