%chk=093-rad.chk
%nproc=32
%mem=825GB
#P UB3LYP/6-311++G(d,p) nosym opt freq Int=Acc2E=11 SCRF=(PCM,Solvent=n,n-DiMethylFormamide)

Radical

-1 2
 C                 17.15991800    1.37695100   -0.46677800
 C                 16.56015700    0.42813800    0.46116000
 C                 16.15927400    0.81854100    1.72311500
 C                 16.29967500    2.19427000    2.17464100
 C                 16.83995100    3.15101700    1.22175000
 C                 17.24588200    2.76287800   -0.03327400
 O                 17.59593900    1.02849200   -1.60784900
 O                 15.97477900    2.55975200    3.34687400
 C                 17.06424800    4.02726400   -2.03613400
 C                 15.82208100    5.21470200    1.81113400
 C                 16.42988600   -1.00162600   -0.00715600
 H                 17.66968300    4.73019800   -2.60880300
 H                 16.12438800    4.51071100   -1.74766600
 H                 16.85848600    3.14065100   -2.63824000
 H                 16.13059000    6.20011600    2.16101200
 H                 15.17941500    4.74205700    2.55571600
 H                 15.28315700    5.31984200    0.86309500
 C                 15.55655200   -0.16431300    2.71258600
 C                 14.05281400   -0.26200500    2.58271900
 C                 13.28483300   -1.35754700    2.48284600
 C                 11.78009500   -1.21935600    2.35088200
 C                 11.23472400   -1.56533700    0.94143900
 C                  9.73277000   -1.50181500    0.88023500
 C                  8.95473500   -0.64121100    0.20592200
 C                  7.44492800   -0.74439700    0.30156700
 C                  6.78135400    0.40310600    1.10453200
 C                  5.27949900    0.31559500    1.09024200
 C                  4.44035300    0.10522200    2.11597800
 C                  2.94445900    0.05543200    1.87590700
 C                 13.80432100   -2.77478200    2.50916300
 C                  9.47264400    0.46226800   -0.68475600
 C                  4.87651300   -0.09803200    3.54732000
 C                  2.15942100    1.22874800    2.51493800
 C                  0.67743700    1.11046400    2.28498300
 C                 -0.13755000    1.93303700    1.60690000
 C                 -1.61412700    1.61018800    1.48564900
 C                 -2.06443600    1.22664400    0.05327100
 C                 -3.54782900    0.99142700   -0.03235700
 C                 -4.20579300   -0.13599100   -0.34344400
 C                 -5.72178700   -0.14875200   -0.36406800
 C                 -6.36864700   -1.01641800    0.74509100
 C                 -7.86958400   -1.03351900    0.64404500
 C                 -8.77847900   -0.58086200    1.52136400
 C                -10.25739200   -0.68182800    1.20229700
 C                -10.94653900    0.68365000    0.95257300
 C                -12.42117400    0.53707200    0.69336000
 C                -13.11527900    0.84052900   -0.41427700
 C                  0.30258300    3.21241800    0.93676900
 C                 -3.54095300   -1.44220300   -0.70559500
 C                 -8.44430500    0.03593600    2.85823100
 C                -12.51467200    1.44056600   -1.66279400
 C                -14.61146700    0.59943500   -0.46380900
 C                -15.04271600   -0.53108700   -1.43151400
 C                -16.53835700   -0.67390500   -1.50793300
 C                -17.30209500   -1.72516800   -1.17324500
 C                -16.77058400   -3.02731600   -0.62394600
 C                -18.80749000   -1.65301500   -1.33716700
 C                -19.36987400   -2.57393600   -2.44919700
 C                -20.87078000   -2.51326600   -2.53271600
 C                -21.63880000   -2.08291300   -3.54529200
 C                -21.10636700   -1.55076900   -4.85441200
 C                -23.14926100   -2.10881200   -3.42073200
 H                 15.79280600    0.19943200    3.71797000
 H                 16.02475200   -1.14309900    2.60349600
 H                 13.54623300    0.70227300    2.57612300
 H                 11.48291000   -0.19486500    2.59403200
 H                 11.28865300   -1.87387400    3.08305000
 H                 11.55275200   -2.58061300    0.67609200
 H                 11.69599400   -0.89466600    0.21308900
 H                  9.22722900   -2.25589100    1.48449600
 H                  7.17079800   -1.69622400    0.76631200
 H                  7.01750700   -0.75108700   -0.70999500
 H                  7.07733500    1.36299900    0.66461900
 H                  7.17588400    0.39580500    2.12310700
 H                  4.83383900    0.43038500    0.10162600
 H                  2.54484400   -0.88561100    2.27747400
 H                  2.74713900    0.04915600    0.79975400
 H                 14.88953800   -2.83072100    2.58944500
 H                 13.50696600   -3.32559200    1.61048400
 H                 13.37747300   -3.31764000    3.36096500
 H                 10.56034600    0.49087800   -0.74076600
 H                  9.13337900    1.44342100   -0.33634400
 H                  9.08394800    0.34292100   -1.70293300
 H                  5.95683300   -0.19382500    3.65270500
 H                  4.41517500   -1.00280800    3.95909200
 H                  4.55406700    0.73295000    4.18412500
 H                  2.55347900    2.17012100    2.12525600
 H                  2.34733600    1.23443900    3.59535800
 H                  0.22578100    0.22253100    2.72878000
 H                 -2.20190700    2.47895300    1.81127900
 H                 -1.86589500    0.78744900    2.16146500
 H                 -1.49797600    0.35084500   -0.27112100
 H                 -1.80028300    2.04115500   -0.63181700
 H                 -4.15292800    1.86792100    0.20199200
 H                 -6.06623500   -0.52197500   -1.33802200
 H                 -6.09683300    0.87452300   -0.26797600
 H                 -6.03436400   -0.65105500    1.71874800
 H                 -5.99911000   -2.04478100    0.65298000
 H                 -8.24966600   -1.46530400   -0.28247900
 H                -10.77388100   -1.18300400    2.03195400
 H                -10.39845500   -1.30937400    0.31727000
 H                -10.44059600    1.18681500    0.12554300
 H                -10.80819000    1.31824400    1.83614300
 H                -12.98238700    0.11673000    1.52864500
 H                  1.35802600    3.43418200    1.09129100
 H                 -0.27996700    4.05973100    1.31696100
 H                  0.12669200    3.17484000   -0.14346100
 H                 -2.45419600   -1.37260600   -0.74000000
 H                 -3.88893700   -1.78647700   -1.68651300
 H                 -3.79993600   -2.23002800    0.00959000
 H                 -7.37570400    0.04144100    3.07063400
 H                 -8.94643500   -0.51114400    3.66470000
 H                 -8.79920000    1.07023600    2.91718600
 H                -11.44824100    1.64295300   -1.56903400
 H                -13.01709200    2.38297800   -1.91039300
 H                -12.65180900    0.77998500   -2.52535600
 H                -15.11632700    1.52587000   -0.76912900
 H                -14.97651500    0.35707000    0.53871500
 H                -14.56382000   -1.46344300   -1.12372300
 H                -14.66339200   -0.30432700   -2.43524800
 H                -17.05306900    0.21269900   -1.87990600
 H                -15.70163000   -2.99630600   -0.41488700
 H                -16.94788800   -3.85447400   -1.31988600
 H                -17.28979100   -3.28653000    0.30577000
 H                -19.10241500   -0.62261000   -1.55712700
 H                -19.28839700   -1.92498200   -0.38793500
 H                -19.07408700   -3.60861400   -2.23795100
 H                -18.90286300   -2.30723900   -3.40010700
 H                -21.38353000   -2.85953100   -1.63468400
 H                -20.02433500   -1.42233100   -4.85332900
 H                -21.56184000   -0.58037700   -5.08218600
 H                -21.36022200   -2.21648900   -5.68658800
 H                -23.42458800   -2.35180400   -2.38954100
 C                -23.84889200   -3.11223400   -4.37192600
 H                -23.54859700   -1.10730600   -3.62791500
 C                -25.33360300   -3.17700700   -4.13664800
 C                -26.32968300   -2.85233400   -4.97396000
 C                -27.77254800   -2.98019500   -4.54633500
 C                -26.14360200   -2.34563700   -6.38261300
 H                -23.41503000   -4.10490100   -4.19351100
 H                -23.62519200   -2.85790900   -5.40941500
 H                -25.61596300   -3.52605200   -3.14300400
 H                -27.86231800   -3.35025600   -3.52285700
 H                -28.31730900   -3.66437900   -5.20780800
 H                -28.28614500   -2.01342700   -4.60863600
 H                -25.09809900   -2.24141200   -6.67116100
 H                -26.62710000   -1.36922100   -6.50306200
 H                -26.62716100   -3.02045000   -7.09876500
 O                 17.82998300    3.68750100   -0.87134100
 O                 17.02569400    4.45671900    1.62060900
 H                 17.15895400   -1.65597300    0.48620500
 H                 16.61065800   -1.06018700   -1.07984500
 H                 15.43811800   -1.40633300    0.20758000




























