%chk=270-rad.chk
%nproc=8
%mem=30GB
#P UB3LYP/6-311++G(d,p) nosym opt freq

Radical

-1 2
C         -0.96818        3.98215       -0.12186
C         -2.22758        3.38382       -0.17868
C         -2.33767        1.99466       -0.19056
C          0.18620        3.18775       -0.07413
C          0.07878        1.80210       -0.08636
C         -1.18837        1.20357       -0.14548
C          1.50644        3.83252       -0.02621
C          2.73222        2.97325        0.10406
C          2.60780        1.63381        0.08607
C          1.28416        0.95326       -0.04469
O          1.61882        5.05323       -0.11344
O          1.16043       -0.26522       -0.11203
N          3.93432        3.68090        0.20448
S          3.99779        0.59193        0.24255
H         -0.89052        5.06842       -0.11548
H         -3.12225        4.00181       -0.21514
H         -3.31832        1.52562       -0.23618
H         -1.28520        0.11863       -0.15710
H          3.78606        4.66248       -0.05640
H          4.68167        3.25750       -0.34185
H          4.78855        1.44497        0.91201







