%chk=299.chk
%nproc=8
%mem=30GB
#P UB3LYP/6-311++G(d,p) nosym opt freq

Oxidized

0 1
C                 -6.7736740000      5.7447250000      0.9715930000
C                 -7.8850220000      4.9954910000      0.5977780000
C                 -7.7611170000      4.0008140000     -0.3759800000
C                 -6.5286400000      3.7516330000     -0.9771010000
C                 -5.4094260000      4.4963110000     -0.6072120000
C                 -5.5372380000      5.4962010000      0.3708540000
C                 -4.3504050000      6.2814580000      0.7555210000
C                 -3.0535630000      5.9725700000      0.0872440000
C                 -2.9073690000      5.0197830000     -0.8662250000
C                 -4.0851720000      4.2194020000     -1.2620090000
O                 -4.3615230000      7.1761450000      1.5936690000
O                 -3.9932490000      3.3445090000     -2.1119180000
C                 -1.5845510000      4.7232830000     -1.5147370000
C                 -0.8038870000      3.6020790000     -0.7956140000
C                  0.5398600000      3.2992290000     -1.4662830000
C                  1.3325160000      2.1910900000     -0.7638690000
C                  2.6787330000      1.8849330000     -1.4300350000
C                  3.4722880000      0.7791680000     -0.7279550000
C                  4.8181380000      0.4701510000     -1.3942150000
C                  5.6104760000     -0.6373640000     -0.6897880000
C                  6.9566200000     -0.9399510000     -1.3618750000
C                  7.7313110000     -2.0435960000     -0.6431690000
S                  9.3368520000     -2.3579050000     -1.5040930000
C                 10.0205770000     -3.6600960000     -0.4725720000
C                  9.7248380000     -5.0033420000     -0.7341090000
C                 10.8829630000     -3.3519550000      0.5824380000
C                 11.4278050000     -4.3683420000      1.3653270000
C                 11.1337580000     -5.7120430000      1.1180790000
C                 10.2733440000     -6.0108240000      0.0551260000
C                 11.7341950000     -6.8147380000      1.9556690000
H                 -6.8448430000      6.5219390000      1.7226260000
H                 -8.8461380000      5.1848050000      1.0595790000
H                 -8.6281740000      3.4181300000     -0.6658370000
H                 -6.4151310000      2.9841430000     -1.7325980000
O                 -2.0294110000      6.7323490000      0.5107640000
H                 -0.9796610000      5.6335830000     -1.5267000000
H                 -1.7660400000      4.4206100000     -2.5489980000
H                 -1.4177090000      2.6953050000     -0.7780660000
H                 -0.6362310000      3.8935190000      0.2474560000
H                  1.1448430000      4.2146390000     -1.4955730000
H                  0.3654600000      3.0138650000     -2.5114340000
H                  0.7266790000      1.2763430000     -0.7350500000
H                  1.5032360000      2.4780070000      0.2823730000
H                  3.2841030000      2.8001300000     -1.4598240000
H                  2.5078950000      1.5999660000     -2.4761770000
H                  2.8665110000     -0.1357600000     -0.6957930000
H                  3.6452590000      1.0644190000      0.3182060000
H                  5.4242590000      1.3846050000     -1.4247380000
H                  4.6476940000      0.1835790000     -2.4398330000
H                  5.0054150000     -1.5503580000     -0.6580200000
H                  5.7845760000     -0.3484000000      0.3553180000
H                  7.5640830000     -0.0281800000     -1.3919080000
H                  6.7868930000     -1.2357700000     -2.4039820000
H                  7.1611630000     -2.9753950000     -0.6313680000
H                  7.9483910000     -1.7567510000      0.3892930000
H                  9.0697400000     -5.2558700000     -1.5611620000
H                 11.1261620000     -2.3158060000      0.7852530000
H                 12.0964620000     -4.1090910000      2.1812560000
H                 10.0326380000     -7.0471050000     -0.1626940000
H                 12.2857810000     -6.4067350000      2.8131090000
H                 12.4344610000     -7.4231620000      1.3634390000
H                 10.9569850000     -7.4903530000      2.3393820000
H                 -2.4010020000      7.3402090000      1.1781130000





