$molecule
0 1
C                 -4.0427660000      0.2807080000      0.2637460000
C                 -2.5787520000     -0.0055200000      0.0435480000
C                 -2.1748590000     -1.0668420000     -0.7822030000
C                 -0.8310850000     -1.3319330000     -1.0085550000
C                  0.1519990000     -0.5385260000     -0.4098450000
C                  1.5906240000     -0.8298730000     -0.6558540000
O                  1.9478360000     -1.7499410000     -1.3746080000
C                  2.6119670000      0.0450850000      0.0083070000
C                  2.2137590000      1.0580900000      0.8001100000
C                  0.7971770000      1.3795660000      1.0708740000
O                  0.5010800000      2.3130560000      1.8016450000
C                 -0.2374440000      0.5240520000      0.4198490000
C                 -1.5915100000      0.7806370000      0.6395790000
C                  4.0498210000     -0.2767510000     -0.2619990000
H                 -4.4932320000      0.7142950000     -0.6353220000
H                 -4.1922810000      0.9850690000      1.0835250000
H                 -4.5948390000     -0.6345450000      0.4935620000
H                 -2.9280990000     -1.6921440000     -1.2509430000
H                 -0.5217980000     -2.1517200000     -1.6454690000
H                  2.9312660000      1.7066490000      1.2930970000
H                 -1.8572010000      1.6077620000      1.2879600000
H                  4.2581810000     -0.2294890000     -1.3344210000
H                  4.2781640000     -1.3004150000      0.0473800000
H                  4.7119930000      0.4127310000      0.2627620000
$end
$rem
   MAX_SCF_CYCLES=200
   BASIS  =  6-311++G(d,p)
   GUI  =  2
   JOB_TYPE  =  SP
   METHOD  =  B3LYP
   SOLVENT_METHOD = COSMO
$end
$solvent
   dielectric 37.219
   opticaldielectric 1.43
$end





