%chk=059-an.chk
%nproc=8
%mem=30GB
#P UB3LYP/6-311++G(d,p) nosym opt freq

Reduced

-2 1
C                 -0.5547100000      1.2080460000     -0.2817850000
C                 -1.4528950000      0.1724340000     -0.7992130000
C                 -1.1778370000     -1.1723780000     -0.6757620000
C                 -0.0021240000     -1.7212730000     -0.0393900000
C                  0.8654530000     -0.7319940000      0.4604820000
C                  0.6542060000      0.6947440000      0.3747140000
O                 -0.8566600000      2.4362500000     -0.4231500000
O                  0.1945830000     -3.0068730000      0.0413180000
C                  1.6268740000      1.6158300000      0.9315110000
C                  2.9063440000      1.0698180000      1.6272020000
O                  1.5724390000      2.8609870000      0.9280470000
H                  3.0221590000     -0.0118930000      1.6691750000
H                  2.9177010000      1.4686880000      2.6488820000
H                  3.7702010000      1.5004410000      1.1064410000
H                  1.7561530000     -1.1169590000      0.9437380000
C                 -2.7193030000      0.6358230000     -1.4879980000
H                 -1.8846510000     -1.9023880000     -1.0808690000
H                 -2.7476640000      1.7285100000     -1.4665590000
H                 -3.6244090000      0.2500430000     -0.9931790000
H                 -2.7653120000      0.3048050000     -2.5376330000





