%chk=100-PCM.chk
%nproc=8
%mem=30GB
#P UB3LYP/6-311++G(d,p) SCRF=(PCM,Solvent=n,n-DiMethylFormamide)

Quinone PCM in DMF 

0 1
C                  2.4483340000      3.3347450000      2.8821370000
C                  3.5690640000      3.2826170000      1.9959670000
C                  3.4597660000      2.6962610000      0.7599860000
C                  2.1439640000      2.0772750000      0.2797760000
C                  1.0232130000      2.1294650000      1.1659200000
C                  1.1325180000      2.7157970000      2.4019120000
O                  2.4655250000      3.8421310000      4.0047220000
O                  2.1267780000      1.5698880000     -0.8428120000
N                  0.1543530000      2.8208990000      3.3085550000
C                 -1.2030340000      2.3290530000      3.1429380000
C                 -2.0433870000      2.6213050000      4.3804960000
N                  4.4379250000      2.5911670000     -0.1466620000
C                  5.7953280000      3.0829520000      0.0189790000
C                  6.6357760000      2.7903880000     -1.2184430000
H                  4.4919180000      3.7239710000      2.3496490000
H                  0.1003400000      1.6881620000      0.8122210000
H                  0.4330600000      3.2895360000      4.1658490000
H                 -1.1744090000      1.2496730000      2.9489910000
H                 -1.6517730000      2.7988590000      2.2589550000
H                 -1.6237510000      2.1363800000      5.2659980000
H                 -3.0593260000      2.2463260000      4.2414750000
H                 -2.1043590000      3.6961230000      4.5712480000
H                  4.1592320000      2.1224780000     -1.0039320000
H                  6.2439400000      2.6132950000      0.9031040000
H                  5.7667660000      4.1623750000      0.2126960000
H                  6.6966710000      1.7155270000     -1.4089780000
H                  7.6517340000      3.1653080000     -1.0793980000
H                  6.2162650000      3.2751740000     -2.1040790000





