$molecule
-1 2
C                  1.6646040000      1.0521620000     -0.8332310000
C                  0.4330850000      1.5668520000     -0.2505570000
C                 -0.5338690000      0.7273010000      0.2630200000
C                 -0.3663820000     -0.7193840000      0.2735810000
C                  0.8692750000     -1.2313240000     -0.3023850000
C                  1.8261960000     -0.3950840000     -0.8291210000
O                  2.5489630000      1.8092960000     -1.3316120000
O                 -1.2335850000     -1.5003570000      0.7652960000
O                  2.9350270000     -0.9496980000     -1.4340990000
C                  4.1820860000     -0.6452100000     -0.8168210000
C                  0.2540570000      3.0650240000     -0.2498540000
C                 -1.8103180000      1.2694600000      0.8574460000
H                  4.3529010000      0.4333860000     -0.7972260000
H                  4.9505610000     -1.1338450000     -1.4210250000
H                  4.2165150000     -1.0536260000      0.2023880000
O                  1.1227190000     -2.5865380000     -0.2547890000
C                  0.2372910000     -3.3992660000     -1.0192670000
H                 -0.7945280000     -3.2705740000     -0.6850440000
H                  0.5551540000     -4.4326700000     -0.8598310000
H                  0.3226160000     -3.1607550000     -2.0881980000
H                  1.1307880000      3.5336530000     -0.6980410000
H                  0.1247990000      3.4581630000      0.7666840000
H                 -0.6339220000      3.3686430000     -0.8191560000
H                 -1.6124200000      1.9345090000      1.7079220000
H                 -2.4290460000      0.4401140000      1.2016770000
H                 -2.3816470000      1.8560290000      0.1265740000
$end
$rem
   MAX_SCF_CYCLES=200
   BASIS  =  6-311++G(d,p)
   GUI  =  2
   JOB_TYPE  =  SP
   METHOD  =  B3LYP
   SOLVENT_METHOD = COSMO
$end
$solvent
   dielectric 37.219
   opticaldielectric 1.43
$end





