$molecule
-1 2
C                 -0.7038440000      2.7255730000      0.6437240000
C                 -1.6876530000      2.5649600000     -0.3182120000
C                 -1.4359510000      1.7861480000     -1.4590500000
C                  0.5540110000      2.1123910000      0.4889160000
C                  0.8100570000      1.3275930000     -0.6591360000
C                 -0.1983640000      1.1775630000     -1.6201560000
C                  1.5883700000      2.2799990000      1.4986290000
C                  2.8486670000      1.6260420000      1.2754020000
C                  3.1575730000      0.8336940000      0.1493310000
C                  2.1275190000      0.6456580000     -0.8890190000
O                  1.4462420000      2.9656810000      2.5598620000
O                  2.2881450000     -0.0269380000     -1.9102480000
O                  3.7455380000      1.8356020000      2.2583510000
H                 -0.8724600000      3.3212090000      1.5332350000
H                 -2.6546320000      3.0420450000     -0.1897080000
H                 -2.2067780000      1.6602500000     -2.2128570000
H                  0.0248180000      0.5707630000     -2.4899420000
H                  3.2424490000      2.4094740000      2.8785620000
N                  4.4264790000      0.3080040000      0.1518350000
N                  4.8154250000     -0.4161730000     -0.8203300000
C                  6.1426940000     -0.8800190000     -0.6650590000
C                  6.9811010000     -0.6014640000      0.4315640000
C                  6.6354960000     -1.6818790000     -1.7064000000
C                  7.9289980000     -2.1938610000     -1.6595400000
C                  8.7564600000     -1.9149320000     -0.5704810000
C                  8.2710190000     -1.1163580000      0.4708420000
H                  6.5927850000      0.0178010000      1.2302420000
H                  5.9750250000     -1.8853710000     -2.5418750000
H                  8.2935410000     -2.8122430000     -2.4740430000
H                  9.7653120000     -2.3128180000     -0.5311500000
H                  8.9095590000     -0.8954650000      1.3213580000
$end
$rem
   MAX_SCF_CYCLES=200
   BASIS  =  6-311++G(d,p)
   GUI  =  2
   JOB_TYPE  =  SP
   METHOD  =  B3LYP
   SOLVENT_METHOD = PCM
$end
$pcm
   theory = CPCM
$end
$solvent
   dielectric 37.219
   opticaldielectric 1.43
$end






