$molecule
-2 1
C                 -3.4415970000     -2.7536440000     -0.3532310000
O                 -2.1596400000     -2.2348370000     -0.1924180000
C                 -2.0038290000     -0.8478990000     -0.2019930000
C                 -3.0865460000     -0.0074970000     -0.3614360000
C                 -2.9358910000      1.4015920000     -0.3718990000
C                 -1.6921310000      2.0114230000     -0.2224170000
O                 -1.5451550000      3.3137540000     -0.2309510000
C                 -0.5243780000      1.1243450000     -0.0512740000
C                  0.7495870000      1.7255960000      0.1014750000
O                  0.8926280000      3.0955720000      0.0903750000
C                  1.8936150000      0.9360700000      0.2672110000
C                  3.1946280000      1.5118480000      0.4240900000
C                  4.3136950000      0.7286290000      0.5863430000
C                  4.1999770000     -0.6906770000      0.6018660000
C                  2.9506850000     -1.2674220000      0.4518210000
C                  1.7774990000     -0.5031060000      0.2830160000
C                  0.4959290000     -1.1923210000      0.1313980000
O                  0.4541080000     -2.4605490000      0.1534860000
C                 -0.6718320000     -0.3234480000     -0.0394320000
H                 -3.3349690000     -3.8425980000     -0.3172110000
H                 -4.1343600000     -2.4379660000      0.4467750000
H                 -3.8983690000     -2.4730090000     -1.3186980000
H                 -4.0840830000     -0.4147000000     -0.4829920000
H                 -3.8046100000      2.0430010000     -0.4992760000
H                 -0.0715500000      3.4237020000     -0.0421990000
H                  3.2698280000      2.5937930000      0.4107970000
H                  5.2905250000      1.1963630000      0.7034200000
H                  5.0849870000     -1.3105830000      0.7301990000
H                  2.8212480000     -2.3454300000      0.4580660000
$end
$rem
   MAX_SCF_CYCLES=200
   BASIS  =  6-311++G(d,p)
   GUI  =  2
   JOB_TYPE  =  SP
   METHOD  =  B3LYP
   SOLVENT_METHOD = PCM
$end
$pcm
   theory = CPCM
$end
$solvent
   dielectric 37.219
   opticaldielectric 1.43
$end





