$molecule
-2 1
C                  1.3292440000      1.0456640000     -2.9831660000
C                  0.0212250000      1.4078550000     -3.4708720000
C                 -1.1112250000      0.7098810000     -3.1274280000
C                 -1.1126770000     -0.4575150000     -2.2760330000
C                  0.1776900000     -0.8804630000     -1.8254750000
O                  2.3433960000      1.7945440000     -3.1878070000
O                 -2.2200520000     -1.0669990000     -1.9945940000
H                 -0.0320960000      2.2992690000     -4.0945980000
C                  1.3727270000     -0.1815700000     -2.1924380000
C                  2.6788180000     -0.6189060000     -1.7028270000
C                  3.8939960000     -0.5539220000     -2.6121240000
C                  5.1713480000     -0.5681450000     -2.0324870000
C                  3.8065940000     -0.6476000000     -4.0087520000
C                  6.3216540000     -0.6593830000     -2.8163370000
C                  6.2205100000     -0.7582790000     -4.2041690000
C                  4.9504080000     -0.7540480000     -4.7938510000
O                  2.8734560000     -1.1275300000     -0.5799540000
C                  0.2122480000     -2.1641820000     -1.0296720000
H                  5.2354890000     -0.5189890000     -0.9514170000
H                  2.8244640000     -0.6330370000     -4.4662690000
H                  7.3026000000     -0.6659470000     -2.3442210000
H                  7.1152620000     -0.8509310000     -4.8167340000
H                  4.8560500000     -0.8292840000     -5.8743270000
H                 -2.0865450000      1.0262180000     -3.4987130000
H                  0.3122430000     -1.9849850000      0.0493740000
H                  1.0586410000     -2.8008070000     -1.3085880000
H                 -0.7310560000     -2.6917090000     -1.1974010000
$end
$rem
   MAX_SCF_CYCLES=200
   BASIS  =  6-311++G(d,p)
   GUI  =  2
   JOB_TYPE  =  SP
   METHOD  =  B3LYP
   SOLVENT_METHOD = PCM
$end
$pcm
   theory = CPCM
$end
$solvent
   dielectric 37.219
   opticaldielectric 1.43
$end





