$molecule
-1 2
C                  5.7700130000     -5.1277640000      1.2384480000
C                  6.7793810000     -5.0403890000      0.2961460000
C                  6.6907420000     -4.0962980000     -0.7443060000
C                  4.6442330000     -4.2829540000      1.1773920000
C                  4.5558100000     -3.3314370000      0.1280150000
C                  5.5926040000     -3.2578320000     -0.8208200000
C                  3.5954340000     -4.4205230000      2.2115630000
C                  2.4942240000     -3.5038610000      2.0447480000
C                  2.3922700000     -2.5754530000      1.0339810000
C                  3.3977890000     -2.4232670000      0.0189780000
O                  3.6810030000     -5.2630720000      3.1344360000
O                  3.3014410000     -1.5733840000     -0.9040070000
H                  5.8122080000     -5.8451540000      2.0499540000
H                  7.6399640000     -5.6999720000      0.3590600000
H                  5.4944800000     -2.5203550000     -1.6095500000
Cl                 1.1869240000     -3.5972710000      3.2410250000
H                  7.4825700000     -4.0270950000     -1.4843630000
H                  1.5316990000     -1.9197390000      0.9752400000
$end

$rem
   BASIS  =  6-311++G(d,p)
   GUI  =  2
   JOB_TYPE  =  SP
   METHOD  =  B3LYP
   SCF_CONVERGENCE  = 8
   SOLVENT_METHOD = sm12
$end

$smx
   solvent dimethylformamide
   charges CM5
$end





