$molecule
0 1
C                 -0.3365480000     -2.0504070000      0.9207560000
C                 -0.2303360000     -0.9456840000     -0.1679430000
C                 -0.5423870000     -1.5588010000     -1.5621150000
C                 -1.2730230000      0.1352760000      0.1324330000
C                 -2.6325420000     -0.2124130000      0.1767370000
C                 -3.6155930000      0.7309710000      0.4448630000
C                 -3.2678910000      2.0641490000      0.6792500000
C                 -1.9338990000      2.4285140000      0.6403070000
C                 -0.9360980000      1.4771670000      0.3695410000
C                  0.4736550000      1.9449750000      0.3451770000
O                  0.7589220000      3.1163740000      0.5530770000
C                  1.5231510000      0.9335020000      0.0582900000
C                  2.8587290000      1.3689730000      0.0337570000
C                  3.8880520000      0.4821850000     -0.2268510000
C                  3.5840470000     -0.8605780000     -0.4671800000
C                  2.2653690000     -1.2950900000     -0.4438220000
C                  1.2054420000     -0.4125630000     -0.1814930000
H                  0.3698660000     -2.8597050000      0.7268570000
H                 -1.3390650000     -2.4816620000      0.9436630000
H                 -0.1202180000     -1.6393460000      1.9094490000
H                 -1.5489820000     -1.9803030000     -1.5874160000
H                 -0.4724580000     -0.7975690000     -2.3424490000
H                  0.1599560000     -2.3588220000     -1.8034780000
H                 -2.9343910000     -1.2375310000     -0.0008900000
H                 -4.6563470000      0.4269740000      0.4713520000
H                 -4.0335810000      2.8021780000      0.8886700000
H                 -1.6213560000      3.4504120000      0.8161940000
H                  3.0504400000      2.4175330000      0.2252120000
H                  4.9166470000      0.8235070000     -0.2445930000
H                  4.3779630000     -1.5701590000     -0.6732840000
H                  2.0624760000     -2.3420570000     -0.6340690000
$end
$rem
   MAX_SCF_CYCLES=200
   BASIS  =  6-311++G(d,p)
   GUI  =  2
   JOB_TYPE  =  SP
   METHOD  =  B3LYP
   SOLVENT_METHOD = COSMO
$end
$solvent
   dielectric 37.219
   opticaldielectric 1.43
$end





