$molecule
0 1
N                  3.1040460000     -1.3456670000      1.2244260000
C                  2.6486970000     -0.5878700000      0.1825730000
C                  3.5885400000     -0.1213650000     -0.7633190000
C                  3.2119960000      0.6753830000     -1.8148360000
C                  1.8755640000      1.0685820000     -1.9924700000
O                  1.5477910000      1.8652040000     -3.0449860000
C                  0.9038550000      0.6257650000     -1.0800710000
C                 -0.5103050000      1.0263380000     -1.2387910000
O                 -0.8629440000      1.7895840000     -2.1552800000
C                 -1.5070560000      0.5105760000     -0.2948500000
C                 -2.8493330000      0.8964520000     -0.4626490000
O                 -3.2699120000      1.7114530000     -1.4389410000
C                 -3.8219910000      0.4107930000      0.4362690000
C                 -3.4706440000     -0.4300610000      1.4575910000
C                 -2.1277560000     -0.8458200000      1.6610370000
N                 -1.8646870000     -1.7092120000      2.6842280000
C                 -1.1338120000     -0.3617230000      0.7730720000
C                  0.2695630000     -0.7286570000      0.9520880000
O                  0.6093420000     -1.4785880000      1.8981250000
C                  1.2854980000     -0.2178540000      0.0126070000
H                  4.0381870000     -1.7160790000      1.1810460000
H                  2.4105880000     -1.7696610000      1.8274320000
H                  4.6306320000     -0.3999470000     -0.6460200000
H                  3.9606530000      1.0156690000     -2.5250340000
H                  2.3474170000      2.0567830000     -3.5475680000
H                 -2.4568380000      1.9489060000     -1.9622460000
H                 -4.8499430000      0.7208440000      0.2915630000
H                 -4.2332520000     -0.7992860000      2.1361190000
H                 -0.8946170000     -1.9194090000      2.8807790000
H                 -2.5792800000     -1.8911350000      3.3681050000
$end

$rem
   BASIS  =  6-311++G(d,p)
   GUI  =  2
   JOB_TYPE  =  SP
   METHOD  =  B3LYP
   SCF_CONVERGENCE  = 8
   SOLVENT_METHOD = sm12
$end

$smx
   solvent dimethylformamide
   charges CM5
$end





