$molecule
-1 2
O                  4.6096990000      1.5042680000     -1.4117710000
C                  3.4997010000      0.9532340000     -0.8163250000
C                  2.2353340000      1.1970690000     -1.3156810000
C                  1.1064300000      0.6243340000     -0.6943250000
C                 -0.2227840000      0.8772200000     -1.2147870000
O                 -0.4186450000      1.6190180000     -2.2424890000
C                 -1.3363840000      0.2588920000     -0.5298590000
C                 -2.6508650000      0.4835040000     -1.0099000000
O                 -2.8856130000      1.2621180000     -2.0931450000
C                 -3.7588400000     -0.0851260000     -0.3909060000
O                 -5.0144790000      0.1558980000     -0.8852820000
C                 -3.5755210000     -0.9028350000      0.7381880000
O                 -4.7053670000     -1.4406400000      1.3125430000
C                 -2.3035090000     -1.1400250000      1.2295540000
C                 -1.1709240000     -0.5721360000      0.6148430000
C                  0.1537180000     -0.8263380000      1.1363900000
O                  0.3470820000     -1.5701750000      2.1671450000
C                  1.2663540000     -0.2094360000      0.4529400000
C                  2.5778250000     -0.4397700000      0.9408590000
O                  2.8137030000     -1.2180920000      2.0241980000
C                  3.6687600000      0.1343150000      0.3126000000
O                  4.9526210000     -0.0819230000      0.7781310000
H                  5.3807520000      1.2102370000     -0.9106540000
H                  2.0997590000      1.8269570000     -2.1847950000
H                 -1.9516150000      1.5674530000     -2.3801530000
H                 -4.8844430000      0.7351960000     -1.6502920000
H                 -4.4251640000     -1.9707650000      2.0655450000
H                 -2.1519540000     -1.7697620000      2.1004940000
H                  1.8760440000     -1.5220510000      2.3078950000
H                  4.8683280000     -0.6606430000      1.5490390000
$end
$rem
   MAX_SCF_CYCLES=200
   BASIS  =  6-311++G(d,p)
   GUI  =  2
   JOB_TYPE  =  SP
   METHOD  =  B3LYP
   SOLVENT_METHOD = PCM
$end
$pcm
   theory = CPCM
$end
$solvent
   dielectric 37.219
   opticaldielectric 1.43
$end






