$molecule
-1 2
O                 -0.0501910000     -1.5332880000     -2.3532670000
C                 -0.0273680000     -0.8346250000     -1.3131140000
C                  1.2315800000     -0.4550330000     -0.6610090000
C                  2.4360690000     -0.8835860000     -1.2143930000
C                  3.6754580000     -0.5587690000     -0.6451340000
C                  4.9158790000     -0.9916110000     -1.2024450000
C                  6.1115710000     -0.6569670000     -0.6215830000
C                  6.1373800000      0.1377090000      0.5619390000
C                  4.9668780000      0.5727360000      1.1273650000
C                  3.7013170000      0.2461390000      0.5535520000
C                  2.4870210000      0.6750850000      1.1068200000
C                  1.2573350000      0.3498390000      0.5375130000
C                  0.0271090000      0.8347630000      1.1727800000
O                  0.0505050000      1.5337110000      2.2136700000
C                 -1.2310970000      0.4555480000      0.5214480000
C                 -2.4364010000      0.8838450000      1.0745410000
C                 -3.6751550000      0.5587820000      0.5051210000
C                 -4.9160540000      0.9913990000      1.0622120000
C                 -6.1116470000      0.6565280000      0.4811830000
C                 -6.1375800000     -0.1379900000     -0.7020910000
C                 -4.9667640000     -0.5728110000     -1.2673310000
C                 -3.7016910000     -0.2462050000     -0.6937090000
C                 -2.4868920000     -0.6748620000     -1.2466630000
C                 -1.2576550000     -0.3494930000     -0.6773710000
H                  2.3884450000     -1.4868740000     -2.1147740000
H                  4.8928410000     -1.5967570000     -2.1039480000
H                  7.0450850000     -0.9952710000     -1.0597080000
H                  7.0902710000      0.3960850000      1.0124930000
H                  4.9836200000      1.1781290000      2.0288110000
H                  2.4790180000      1.2807110000      2.0068290000
H                 -2.3888460000      1.4871490000      1.9749220000
H                 -4.8934850000      1.5965620000      1.9636910000
H                 -7.0449070000      0.9949970000      0.9196850000
H                 -7.0901590000     -0.3967770000     -1.1531050000
H                 -4.9829910000     -1.1782610000     -2.1688140000
H                 -2.4784990000     -1.2805380000     -2.1467180000
$end
$rem
   MAX_SCF_CYCLES=200
   SCF_Guess=core
   BASIS  =  6-311++G(d,p)
   GUI  =  2
   JOB_TYPE  =  SP
   METHOD  =  B3LYP
   THRESH = 14
   SCF_CONVERGENCE = 8
   SOLVENT_METHOD = COSMO
$end
$solvent
   dielectric 37.219
   opticaldielectric 1.43
$end




