$molecule
-2 1
C                  1.0080280000      4.2977880000      5.3424610000
C                  1.2297930000      4.0008060000      3.9424480000
C                  0.8424110000      2.8358000000      3.3333400000
C                  0.1462980000      1.7699750000      4.0160520000
C                 -0.0874750000      2.0479370000      5.4090640000
C                  0.3202130000      3.2654000000      6.0505450000
O                  1.4488860000      5.3800880000      5.8781500000
O                 -0.2466480000      0.7222430000      3.3932480000
H                  1.7488380000      4.7726440000      3.3746430000
H                  1.0316620000      2.6690610000      2.2739410000
S                 -1.1174830000      0.8843230000      6.2576960000
C                  0.2349790000      3.4993230000      7.5193170000
O                  0.9767400000      3.0666200000      8.3751240000
O                 -0.7640330000      4.3822940000      7.8404660000
C                 -0.8307770000      4.7409530000      9.2130590000
H                 -1.6568000000      5.4516750000      9.2974060000
H                  0.1018620000      5.2100440000      9.5422840000
H                 -1.0224740000      3.8632550000      9.8381520000
C                 -2.6829260000      0.8479310000      5.3313740000
C                 -2.8395070000      0.0109440000      4.2209900000
C                 -3.7205390000      1.6878870000      5.7432630000
C                 -4.0533660000      0.0205910000      3.5325810000
C                 -4.9286760000      1.6864750000      5.0498170000
C                 -5.1000110000      0.8500250000      3.9401620000
O                 -0.5994750000     -0.5005370000      6.2446090000
O                 -1.4921360000      1.4443040000      7.5817460000
H                 -2.0040100000     -0.5984810000      3.9093730000
H                 -3.5630040000      2.3256150000      6.6048140000
H                 -4.1783770000     -0.6213710000      2.6647460000
H                 -5.7364140000      2.3373920000      5.3730400000
H                 -6.0401570000      0.8522280000      3.3948480000
$end

$rem
   BASIS  =  6-311++G(d,p)
   GUI  =  2
   JOB_TYPE  =  SP
   METHOD  =  B3LYP
   SCF_CONVERGENCE  = 8
   SOLVENT_METHOD = sm12
$end

$smx
   solvent dimethylformamide
   charges CM5
$end





