%chk=107-an.chk
%nproc=8
%mem=30GB
#P UB3LYP/6-311++G(d,p) nosym opt freq

Reduced

-2 1
C                 -0.5402020000     -2.1699640000      1.2979600000
C                  0.8534010000     -2.4459090000      1.1463460000
C                  1.8093610000     -1.4533840000      1.0171770000
C                  1.4048020000     -0.0342100000      1.0268790000
C                  0.0121410000      0.2426500000      1.1919800000
C                 -0.9424530000     -0.7502860000      1.3299950000
O                 -1.4311610000     -3.0759620000      1.3951630000
O                  2.2899120000      0.8712640000      0.8788990000
N                 -2.3045980000     -0.5863580000      1.5372150000
N                  3.1839880000     -1.6151860000      0.9103990000
C                 -3.1566800000      0.5693010000      1.2360260000
C                 -4.6100260000      0.0863510000      1.3998160000
C                 -2.9120100000      1.7113580000      2.2472890000
C                 -2.9604590000      1.0802840000     -0.2097780000
C                  3.9485710000     -2.7860320000      0.4659750000
C                  3.9497300000     -3.8843660000      1.5527190000
C                  5.3976050000     -2.3029510000      0.2694810000
C                  3.4247530000     -3.3527370000     -0.8720150000
H                  1.1163280000     -3.4962630000      1.1407710000
H                 -0.2505520000      1.2927750000      1.2056090000
H                 -2.7499020000     -1.4984730000      1.4715630000
H                  3.5972770000     -0.7075460000      0.7104510000
H                 -4.8395640000     -0.7106230000      0.6837750000
H                 -5.3223670000      0.9009620000      1.2352650000
H                 -4.7731300000     -0.3052740000      2.4098640000
H                 -3.0520780000      1.3378050000      3.2660450000
H                 -3.6184760000      2.5308050000      2.0791460000
H                 -1.8998320000      2.1111200000      2.1723170000
H                 -3.2017390000      0.2857950000     -0.9227440000
H                 -1.9269820000      1.3850460000     -0.3847220000
H                 -3.6156550000      1.9339500000     -0.4117780000
H                  2.9483040000     -4.2794420000      1.7297900000
H                  4.3155520000     -3.4673630000      2.4956250000
H                  4.6011120000     -4.7159980000      1.2651840000
H                  5.7903630000     -1.8770270000      1.1985630000
H                  5.4467680000     -1.5304000000     -0.5064750000
H                  6.0571150000     -3.1214900000     -0.0323080000
H                  2.3805490000     -3.6589800000     -0.7904360000
H                  4.0185570000     -4.2163020000     -1.1895870000
H                  3.4877570000     -2.5864380000     -1.6512750000





