%chk=164-an.chk
%nproc=8
%mem=30GB
#P UB3LYP/6-311++G(d,p) nosym opt freq SCF=YQC

Reduced

-4 1
 N                  3.36844000   -1.65959200   -2.42613200
 C                  2.85684600   -0.43886500   -2.07067500
 C                  1.94063300   -0.12829700   -1.03196300
 C                  3.31285900    0.65577700   -2.86025600
 C                  1.50659800    1.18978600   -0.80870500
 C                  2.88162900    1.94415700   -2.63167200
 C                  1.97063400    2.25088100   -1.61421700
 S                  1.55465200    4.00601000   -1.36399200
 O                  0.13293600    3.98650400   -0.86526100
 O                  2.50422700    4.53363000   -0.34852600
 O                  1.69582700    4.64807600   -2.69741500
 N                  0.53317400    1.52359900    0.17648200
 C                  0.07358600    0.88940200    1.25884400
 N                  0.57097600   -0.32080800    1.63774400
 C                  0.02349700   -0.79786000    2.72601200
 N                 -0.91998700   -0.29176300    3.48738000
 C                 -1.35743100    0.92175400    3.02574700
 N                 -0.91161800    1.53888400    1.94930700
 Cl                 0.65146000   -2.37568900    3.26483400
 N                 -2.34278500    1.45235600    3.81931900
 C                 -3.07719700    2.65341600    3.77296700
 C                 -2.88740700    3.65446700    2.81442100
 C                 -4.05092100    2.82892100    4.77578900
 C                 -3.67716800    4.80540200    2.87665500
 C                 -4.82356900    3.97981100    4.82067200
 C                 -4.64133300    4.98173300    3.86406800
 S                 -6.06749500    4.20288600    6.14869500
 O                 -6.09815100    2.90020500    6.86974100
 O                 -5.55161400    5.33221300    6.97197800
 O                 -7.33370500    4.52869800    5.43486900
 H                  4.06507400   -1.65405500   -3.21871900
 H                  1.56183700   -0.88747700   -0.37599400
 H                  4.01074300    0.44973300   -3.66475200
 H                  3.23145200    2.75517100   -3.25943800
 H                  0.12467200    2.46233200    0.01868700
 H                 -2.56806300    0.83751200    4.58742800
 H                 -2.14101300    3.53024600    2.04371200
 H                 -4.21978500    2.06549200    5.52840100
 H                 -3.52355400    5.57587500    2.12758600
 H                 -5.25275600    5.87520900    3.89939700
 C                  3.16736200   -2.99501900   -2.04797400
 C                  3.93969500   -3.99924100   -2.78088800
 C                  2.30299600   -3.40178800   -1.04594500
 C                  2.12702100   -4.76623900   -0.74500300
 C                  3.77937200   -5.40887000   -2.42868200
 C                  2.82160100   -5.75839500   -1.40894100
 C                  4.58466300   -6.44812400   -3.04735300
 C                  5.49316800   -6.03042300   -4.08328800
 C                  5.62160000   -4.65070000   -4.46151500
 C                  4.85734600   -3.60844500   -3.82912300
 C                  6.27854400   -6.99585800   -4.76673700
 C                  7.17193200   -6.64655100   -5.75811400
 C                  7.31467000   -5.27764300   -6.11687800
 C                  6.55638400   -4.31865300   -5.47845900
 O                  4.51990600   -7.70177800   -2.71210700
 O                  5.02821100   -2.37142000   -4.20981300
 N                  2.55296800   -7.11243600   -1.11044300
 H                  1.73588200   -2.68498200   -0.47588000
 H                  1.40696100   -5.04810400    0.02039400
 H                  6.14554600   -8.02992300   -4.46746400
 H                  7.76497000   -7.40698900   -6.26715700
 H                  8.01628400   -4.99452800   -6.90025900
 H                  6.64674400   -3.26766200   -5.73075600
 H                  3.29077800   -7.70181900   -1.52923700
 H                  2.39489600   -7.26356800   -0.12251100

























