%chk=086-rad.chk
%nproc=8
%mem=30GB
#P UB3LYP/6-311++G(d,p) nosym  opt freq

Radical

-1 2
C                  2.6592810000      1.4470510000     -0.2240090000
O                  2.4797040000      0.2175310000      0.4748630000
C                  1.2535550000     -0.4043340000      0.3066450000
C                  1.2550610000     -1.7136960000     -0.0952140000
C                  0.0368260000     -2.4839740000     -0.2249850000
O                  0.0387150000     -3.6911800000     -0.5968530000
C                 -1.1858080000     -1.7699390000      0.0748820000
C                 -1.1884470000     -0.4607440000      0.4768680000
O                 -2.4064780000      0.1051680000      0.8156120000
C                 -2.7377160000      1.3219250000      0.1506050000
C                  0.0344830000      0.3118440000      0.6646830000
O                  0.0391610000      1.4925640000      1.1255830000
H                  3.6715460000      1.7848430000      0.0110140000
H                  2.5795730000      1.2873200000     -1.3086310000
H                  1.9277720000      2.1902390000      0.0971910000
H                  2.1955620000     -2.2047280000     -0.3208660000
H                 -2.1249910000     -2.3042990000     -0.0197250000
H                 -2.8033470000      1.1606470000     -0.9347270000
H                 -3.7214520000      1.6148090000      0.5254610000
H                 -2.0030000000      2.0989540000      0.3675050000


