%chk=333-rad.chk
%nproc=8
%mem=30GB
#P UB3LYP/6-311++G(d,p) nosym  opt freq SCRF=(PCM,Solvent=n,n-DiMethylFormamide)

Radical

-1 2
C                 -1.2284880000      2.1900880000     -2.9343160000
C                 -2.1532950000      2.1172910000     -1.8150350000
C                  0.1577040000      2.0206660000     -2.5302880000
C                  0.5202050000      1.4917900000     -1.3208030000
C                 -0.5151540000      0.9001710000     -0.4554390000
C                 -1.8095100000      1.5889810000     -0.5998270000
C                 -0.2943650000     -0.2167890000      0.4082570000
C                 -1.3298000000     -0.8087130000      1.2733040000
C                  1.0000410000     -0.9054690000      0.5527450000
C                  1.3436850000     -1.4338660000      1.7679550000
C                  0.4186900000     -1.5068680000      2.8870730000
C                 -0.9674510000     -1.3376990000      2.4827850000
O                 -1.5701170000      2.5400900000     -4.0854560000
O                  0.7601500000     -1.8570720000      4.0382010000
C                  1.9289100000      1.7874090000     -0.7813740000
C                  1.8980470000      3.1414090000     -0.0364350000
C                  3.0389530000      1.8155060000     -1.8442290000
C                  1.8321740000     -1.2938800000     -0.6799530000
C                  1.2859570000     -2.6250510000     -1.2446600000
C                  3.3425370000     -1.4286030000     -0.4283360000
C                 -2.7382420000     -1.1047470000      0.7334130000
C                 -3.8486110000     -1.1332260000      1.7959180000
C                 -2.7067090000     -2.4587050000     -0.0115800000
C                 -2.6414160000      1.9777130000      0.6329230000
C                 -2.0946020000      3.3086330000      1.1976390000
C                 -4.1517140000      2.1131530000      0.3812940000
H                 -3.1073930000      2.6101450000     -1.9645120000
H                  0.8954010000      2.4428730000     -3.2033840000
H                  2.2978190000     -1.9266030000      1.9175660000
H                 -1.7051990000     -1.7602140000      3.1556290000
H                  2.1919580000      1.0446480000     -0.0318030000
H                  2.8821890000      3.3615960000      0.3931970000
H                  1.1716610000      3.1246340000      0.7781990000
H                  1.6277080000      3.9549590000     -0.7161490000
H                  3.0616370000      0.9004740000     -2.4406180000
H                  4.0153900000      1.9296980000     -1.3623550000
H                  2.9160290000      2.6573300000     -2.5314170000
H                  1.6804830000     -0.5564930000     -1.4648750000
H                  1.3876030000     -3.4310470000     -0.5118530000
H                  1.8357760000     -2.9084090000     -2.1496620000
H                  0.2300200000     -2.5363370000     -1.5067050000
H                  3.5666110000     -2.2742000000      0.2279810000
H                  3.7657130000     -0.5315740000      0.0296100000
H                  3.8651350000     -1.6044660000     -1.3741870000
H                 -3.0012910000     -0.3620440000     -0.0162130000
H                 -4.8248630000     -1.2476600000      1.3137270000
H                 -3.8717390000     -0.2182400000      2.3923630000
H                 -3.7256700000     -1.9750620000      2.4830890000
H                 -3.6906340000     -2.6791720000     -0.4415630000
H                 -2.4363570000     -3.2722090000      0.6681850000
H                 -1.9800470000     -2.4416620000     -0.8259660000
H                 -2.4900490000      1.2402430000      1.4178310000
H                 -2.6443270000      3.5922530000      2.1026170000
H                 -2.1958330000      4.1146790000      0.4648280000
H                 -1.0387230000      3.2194190000      1.4597400000
H                 -4.6742340000      2.2893130000      1.3271310000
H                 -4.5753230000      1.2163130000     -0.0766170000
H                 -4.3753720000      2.9588280000     -0.2750700000


