$molecule
-1 2
C                 -4.0695480000      3.5961490000      1.5374880000
C                 -4.5554290000      3.8204700000      0.2667510000
C                 -3.9605740000      3.1717900000     -0.8267210000
C                 -2.8876740000      2.3059830000     -0.6447760000
C                 -2.3588830000      2.0496770000      0.6510290000
C                 -2.9837840000      2.7237740000      1.7482520000
C                 -2.5166540000      2.5312250000      3.1338230000
C                 -1.4105600000      1.6357420000      3.3018050000
C                 -0.7935120000      0.9767720000      2.2640120000
C                 -1.2207940000      1.1369880000      0.8826410000
O                 -3.0647040000      3.1232540000      4.1052470000
O                 -0.6293420000      0.5159860000     -0.0364020000
H                 -4.4972840000      4.0747060000      2.4099360000
H                 -4.3359650000      3.3413030000     -1.8346070000
O                 -2.3355310000      1.6919930000     -1.7426570000
C                  0.3663670000      0.0474660000      2.5052400000
H                 -5.3923940000      4.4926940000      0.1025550000
H                 -1.0654030000      1.4930130000      4.3234050000
H                 -2.8300000000      1.9937310000     -2.5123160000
H                  0.6098640000     -0.0053610000      3.5702850000
H                  1.2536300000      0.3751880000      1.9526550000
H                  0.1441150000     -0.9610710000      2.1399780000
$end
$rem
   MAX_SCF_CYCLES=200
   BASIS  =  6-311++G(d,p)
   GUI  =  2
   JOB_TYPE  =  SP
   METHOD  =  B3LYP
   SOLVENT_METHOD = PCM
$end
$pcm
   theory = CPCM
$end
$solvent
   dielectric 37.219
   opticaldielectric 1.43
$end






