%chk=254-an-PCM.chk
%nproc=8
%mem=30GB
#P UB3LYP/6-311++G(d,p) SCRF=(PCM,Solvent=n,n-DiMethylFormamide)

Reduced 

-2 1
C                 -1.8817890000      1.7609080000      0.7139180000
C                 -2.6327640000      0.9389390000      1.5236410000
C                 -2.1544790000     -0.3521470000      1.8571120000
C                 -0.6352150000      1.3478940000      0.2015220000
C                 -0.1508910000      0.0423020000      0.5405700000
C                 -0.9390460000     -0.7791770000      1.3714480000
C                  0.1204600000      2.2521790000     -0.6569980000
C                  1.3815120000      1.7401020000     -1.1290720000
C                  1.8517490000      0.4554370000     -0.8037050000
C                  1.1285480000     -0.4511940000      0.0480850000
O                 -0.3257680000      3.4124630000     -0.9581160000
O                  1.5648500000     -1.6133420000      0.3545890000
C                  2.1795890000      2.6659310000     -2.0194350000
C                  3.1697560000     -0.0633740000     -1.3358390000
C                  4.3522410000      0.1164120000     -0.3614370000
C                  5.6696230000     -0.4547740000     -0.9007230000
C                  6.8674860000     -0.2772320000      0.0414890000
C                  8.1804600000     -0.8458330000     -0.5124490000
C                  9.3891620000     -0.6584410000      0.4136860000
C                 10.6968420000     -1.2250480000     -0.1540480000
C                 11.9121030000     -1.0338700000      0.7623430000
C                 13.2162330000     -1.5983290000      0.1840810000
C                 14.4311110000     -1.4044770000      1.0962800000
Cl                -3.1040010000     -1.4392080000      2.8977910000
Cl                -4.1980200000      1.5217740000      2.1384990000
H                 -2.2280540000      2.7517460000      0.4448680000
H                 -0.5519780000     -1.7617580000      1.6141670000
H                  1.7042670000      3.6484020000     -2.0107640000
H                  2.2078430000      2.3162310000     -3.0621400000
H                  3.2214270000      2.7676230000     -1.6914150000
H                  3.4198080000      0.4152220000     -2.2899770000
H                  3.0542330000     -1.1377330000     -1.5181610000
H                  4.0905480000     -0.3785260000      0.5792840000
H                  4.4817430000      1.1831420000     -0.1365890000
H                  5.9023770000      0.0181370000     -1.8659530000
H                  5.5337110000     -1.5239580000     -1.1120630000
H                  6.6424360000     -0.7553420000      1.0037210000
H                  7.0007190000      0.7912150000      0.2585620000
H                  8.3954960000     -0.3748050000     -1.4813950000
H                  8.0492510000     -1.9162230000     -0.7205890000
H                  9.1798700000     -1.1318590000      1.3820380000
H                  9.5207080000      0.4114600000      0.6233990000
H                 10.9014770000     -0.7538720000     -1.1248740000
H                 10.5661310000     -2.2958310000     -0.3602270000
H                 11.7138600000     -1.5075870000      1.7327440000
H                 12.0449680000      0.0359280000      0.9706030000
H                 13.4131980000     -1.1262320000     -0.7870800000
H                 13.0850190000     -2.6681500000     -0.0232410000
H                 14.6190840000     -0.3425700000      1.2921330000
H                 15.3423300000     -1.8185220000      0.6510280000
H                 14.2883000000     -1.8988080000      2.0640260000





