%chk=254-an.chk
%nproc=8
%mem=30GB
#P UB3LYP/6-311++G(d,p) nosym opt freq

Reduced

-2 1
C                 -1.87705000    1.75864400    0.72346900
 C                 -2.62330100    0.93618500    1.53703900
 C                 -2.14171600   -0.35402800    1.86928600
 C                 -0.63213300    1.34706100    0.20589700
 C                 -0.14425700    0.04244100    0.54399800
 C                 -0.92782400   -0.77968300    1.37864600
 C                  0.11862700    2.25195100   -0.65619200
 C                  1.37853800    1.74144000   -1.13303500
 C                  1.85196100    0.45775100   -0.80870200
 C                  1.13316500   -0.44992600    0.04560600
 O                 -0.33017900    3.41164600   -0.95594500
 O                  1.57195800   -1.61193400    0.34965500
 C                  2.17204900    2.66820200   -2.02665200
 C                  3.16916800   -0.05938300   -1.34500200
 C                  4.35251300    0.11930900   -0.37194100
 C                  5.66919600   -0.45371200   -0.91147200
 C                  6.86654200   -0.27681600    0.03122500
 C                  8.18028900   -0.84609600   -0.52066200
 C                  9.38654400   -0.66067000    0.40862900
 C                 10.69640600   -1.22611300   -0.15601500
 C                 11.90752500   -1.03584900    0.76546100
 C                 13.21496500   -1.59917900    0.19319800
 C                 14.42423600   -1.40584000    1.11288300
 Cl                -3.08529400   -1.44181600    2.91465400
 Cl                -4.18667300    1.51728000    2.15842400
 H                 -2.22586600    2.74884600    0.45537800
 H                 -0.53849400   -1.76168200    1.62010200
 H                  1.69549800    3.65006100   -2.01621600
 H                  2.19659700    2.31845100   -3.06950600
 H                  3.21489100    2.77115300   -1.70266100
 H                  3.41697000    0.42096900   -2.29880200
 H                  3.05376600   -1.13344600   -1.52906100
 H                  4.09105100   -0.37520500    0.56906600
 H                  4.48350200    1.18592500   -0.14721100
 H                  5.90243600    0.01836900   -1.87698100
 H                  5.53187200   -1.52285800   -1.12198500
 H                  6.64032600   -0.75455400    0.99340900
 H                  7.00035500    0.79167400    0.24816200
 H                  8.39772500   -0.37431200   -1.48868300
 H                  8.04844700   -1.91613600   -0.73011300
 H                  9.17472200   -1.13618200    1.37543800
 H                  9.51770000    0.40879000    0.62104400
 H                 10.90415800   -0.75333100   -1.12534700
 H                 10.56656400   -2.29651900   -0.36443000
 H                 11.70514800   -1.51071300    1.73449800
 H                 12.03925700    0.03375100    0.97569300
 H                 13.41712600   -1.12577900   -0.77621500
 H                 13.08520700   -2.66874700   -0.01614400
 H                 14.61016100   -0.34401800    1.31135200
 H                 15.33846700   -1.81856800    0.67302100
 H                 14.27568300   -1.90157600    2.07908000








