$molecule
0 1
C                 -0.2466350000     -0.4117830000      2.1660550000
C                 -0.6516940000     -1.0479170000      0.8876050000
C                 -0.2826770000     -0.5271680000     -0.2892180000
C                  0.5354380000      0.7076230000     -0.3718070000
C                  0.9398910000      1.3587210000      0.9108280000
C                  0.5886310000      0.8112050000      2.0859820000
O                 -0.5860720000     -0.8767740000      3.2413190000
O                  0.8791730000      1.1624390000     -1.4504050000
H                 -1.2504810000     -1.9481620000      0.9699150000
H                 -0.5534250000     -0.9730800000     -1.2400100000
C                  1.8352250000      2.5869210000      0.8604930000
C                  1.2822000000      3.9543300000      0.4075150000
C                 -0.2331020000      3.9387490000      0.1450340000
C                  1.6022200000      4.9601700000      1.5369050000
C                  2.0413820000      4.3592160000     -0.8767550000
O                  2.9817560000      2.4593230000      1.2271390000
H                 -0.4969090000      3.2918540000     -0.6935820000
H                 -0.5660030000      4.9491650000     -0.1070440000
H                 -0.7976680000      3.6198140000      1.0258660000
H                  1.0658830000      4.7126780000      2.4581800000
H                  1.2945000000      5.9633830000      1.2298350000
H                  2.6708180000      4.9730820000      1.7544050000
H                  1.8455200000      3.6556880000     -1.6881140000
H                  3.1171000000      4.3885870000     -0.6936600000
H                  1.7152460000      5.3542770000     -1.1929860000
H                  0.8953030000      1.2362800000      3.0358450000
$end
$rem
   MAX_SCF_CYCLES=200
   BASIS  =  6-311++G(d,p)
   GUI  =  2
   JOB_TYPE  =  SP
   METHOD  =  B3LYP
   SOLVENT_METHOD = PCM
$end
$pcm
   theory = CPCM
$end
$solvent
   dielectric 37.219
   opticaldielectric 1.43
$end





