%chk=298-an-PCM.chk
%nproc=8
%mem=30GB
#P UB3LYP/6-311++G(d,p) SCRF=(PCM,Solvent=n,n-DiMethylFormamide)

Reduced 

-2 1
C                 -7.1707500000      4.0854400000      0.7848400000
C                 -8.1555520000      3.3957530000      0.1027260000
C                 -7.8228460000      2.6310280000     -1.0350380000
C                 -5.8243800000      4.0384010000      0.3595660000
C                 -5.4859590000      3.2651600000     -0.7907060000
C                 -6.5070600000      2.5734490000     -1.4657300000
C                 -4.7961860000      4.7609800000      1.0737670000
C                 -3.4518030000      4.6480770000      0.5614480000
C                 -3.0892230000      3.9155950000     -0.5510920000
C                 -4.0954400000      3.1776490000     -1.2828450000
O                 -4.9871150000      5.4836800000      2.1104160000
O                 -3.8100420000      2.4905730000     -2.3003110000
O                 -2.5344930000      5.3550020000      1.2863060000
C                 -1.6592830000      3.8576410000     -1.0243860000
C                 -0.8708220000      2.6576640000     -0.4630220000
C                  0.5735160000      2.5992800000     -0.9739940000
C                  1.3836440000      1.4186880000     -0.4241760000
C                  2.8281490000      1.3701010000     -0.9377370000
C                  3.6479290000      0.1946110000     -0.3912770000
C                  5.0900210000      0.1569160000     -0.9118940000
C                  5.9184480000     -1.0135960000     -0.3675790000
C                  7.3587210000     -1.0336340000     -0.8986310000
C                  8.1795420000     -2.2013780000     -0.3491500000
S                  9.8900750000     -2.1654910000     -1.0222080000
C                 10.5922900000     -3.6468920000     -0.1871460000
C                 12.0548560000     -3.8509630000     -0.5851640000
C                 12.6843120000     -5.0780460000      0.0897750000
C                 14.1518590000     -5.2949800000     -0.2998150000
C                 14.7905380000     -6.5180920000      0.3694890000
C                 16.2580450000     -6.7349830000     -0.0193490000
C                 16.8967230000     -7.9579940000      0.6505360000
C                 18.3641040000     -8.1759720000      0.2629980000
C                 19.0013760000     -9.3994660000      0.9340700000
C                 20.4667340000     -9.6166300000      0.5470180000
H                 -7.4016980000      4.6796670000      1.6620270000
H                 -9.1865270000      3.4415000000      0.4428120000
H                 -8.5966610000      2.0885560000     -1.5705440000
H                 -6.2218170000      1.9928910000     -2.3360140000
H                 -3.1000470000      5.7584960000      1.9822450000
H                 -1.1442550000      4.7828410000     -0.7448520000
H                 -1.6659620000      3.7842070000     -2.1167210000
H                 -1.3966190000      1.7370210000     -0.7381030000
H                 -0.8702180000      2.7107250000      0.6323230000
H                  1.0861230000      3.5365920000     -0.7167520000
H                  0.5640210000      2.5490850000     -2.0710950000
H                  0.8753920000      0.4807620000     -0.6834140000
H                  1.3915610000      1.4658360000      0.6728700000
H                  3.3333230000      2.3108190000     -0.6808360000
H                  2.8184820000      1.3226770000     -2.0348140000
H                  3.1456310000     -0.7472100000     -0.6482820000
H                  3.6604750000      0.2413560000      0.7056310000
H                  5.5899570000      1.1005530000     -0.6568780000
H                  5.0761780000      0.1087770000     -2.0086240000
H                  5.4231110000     -1.9588860000     -0.6241660000
H                  5.9361010000     -0.9662110000      0.7289050000
H                  7.8548340000     -0.0909450000     -0.6404430000
H                  7.3423220000     -1.0873020000     -1.9932980000
H                  7.7180540000     -3.1554370000     -0.6220910000
H                  8.2344180000     -2.1499940000      0.7426690000
H                  9.9946360000     -4.5197020000     -0.4682070000
H                 10.5069900000     -3.5078700000      0.8951720000
H                 12.6299450000     -2.9556490000     -0.3222730000
H                 12.1223640000     -3.9592790000     -1.6738000000
H                 12.1041400000     -5.9731700000     -0.1693320000
H                 12.6104660000     -4.9711750000      1.1797780000
H                 14.7304940000     -4.3985980000     -0.0409940000
H                 14.2243220000     -5.4010820000     -1.3901340000
H                 14.2116260000     -7.4146600000      0.1114420000
H                 14.7170580000     -6.4126550000      1.4599180000
H                 16.8371550000     -5.8383910000      0.2385580000
H                 16.3318730000     -6.8407670000     -1.1098160000
H                 16.3174770000     -8.8544330000      0.3926870000
H                 16.8224270000     -7.8521560000      1.7408950000
H                 18.9451180000     -7.2808650000      0.5207320000
H                 18.4404220000     -8.2829290000     -0.8269370000
H                 18.4206760000    -10.2945040000      0.6770430000
H                 18.9247180000     -9.2933110000      2.0236630000
H                 20.5765520000     -9.7672430000     -0.5330670000
H                 20.8893710000    -10.4969250000      1.0434210000
H                 21.0854900000     -8.7562020000      0.8265360000





