$molecule
-2 1
C                  4.8776090000     -2.9403920000     -0.3100800000
C                  5.6399540000     -2.0933220000     -1.0667910000
C                  5.0886180000     -0.8573450000     -1.5220210000
C                  3.5340730000     -2.6266760000      0.0440290000
C                  2.9366950000     -1.3672790000     -0.4054050000
C                  3.7869230000     -0.5157460000     -1.1993270000
C                  2.8158670000     -3.5679170000      0.8343810000
C                  1.4657250000     -3.2401850000      1.1838370000
C                  0.8675190000     -2.0083520000      0.7500460000
C                  1.5859290000     -1.0449510000     -0.0523020000
C                  0.6969860000     -4.1606450000      1.9825800000
C                 -0.6032870000     -3.8540270000      2.3241780000
C                 -0.4968140000     -1.7270890000      1.1303690000
C                 -1.2002430000     -2.6364270000      1.8976400000
O                  3.3606600000     -4.7023970000      1.2364250000
O                  0.9755870000      0.0620680000     -0.4132030000
O                  1.2731830000     -5.3281820000      2.3899630000
H                  5.2623420000     -3.8867940000      0.0529070000
H                  6.6651200000     -2.3472680000     -1.3290840000
H                  5.7026930000     -0.1963610000     -2.1203470000
O                  3.2417430000      0.6761630000     -1.6336030000
H                  2.2312890000     -5.2667850000      1.9825170000
O                 -1.0752550000     -0.5657520000      0.7270710000
H                 -2.2256490000     -2.3989200000      2.1693940000
H                 -1.1648100000     -4.5631920000      2.9275210000
H                 -0.2903350000     -0.1113990000      0.1743260000
C                  4.0271460000      1.5365220000     -2.4067100000
H                  3.3945290000      2.4001720000     -2.6286040000
H                  4.3492050000      1.0760610000     -3.3544550000
H                  4.9272570000      1.8802470000     -1.8722690000
$end
$rem
   MAX_SCF_CYCLES=200
   BASIS  =  6-311++G(d,p)
   GUI  =  2
   JOB_TYPE  =  SP
   METHOD  =  B3LYP
   SOLVENT_METHOD = COSMO
$end
$solvent
   dielectric 37.219
   opticaldielectric 1.43
$end





