$molecule
-1 2
O                 -0.0165510000     -2.5100930000     -0.5255080000
C                 -0.0087080000     -1.2943520000     -0.1718510000
C                  1.2479460000     -0.6011710000      0.0973220000
C                  2.4489960000     -1.3562990000      0.1139550000
C                  3.6582870000     -0.7925120000      0.4712000000
C                  3.7376970000      0.5659050000      0.8331180000
C                  2.5823930000      1.3374470000      0.7957940000
C                  1.3562390000      0.7759570000      0.4284660000
S                  0.0116320000      1.9500920000      0.2167800000
O                  0.0123970000      2.4469790000     -1.2326950000
C                 -1.3464670000      0.7923930000      0.4327250000
C                 -2.5645070000      1.3687850000      0.8039300000
C                 -3.7290520000      0.6114210000      0.8447230000
C                 -3.6673900000     -0.7477780000      0.4823440000
C                 -2.4661830000     -1.3262780000      0.1213120000
C                 -1.2560210000     -0.5859200000      0.1011220000
H                  2.3689760000     -2.4038670000     -0.1510960000
H                  4.5554010000     -1.4051320000      0.4788090000
H                  4.6850230000      1.0091390000      1.1208480000
H                  2.6242680000      2.3957250000      1.0373940000
H                 -2.5927190000      2.4274510000      1.0458100000
H                 -4.6699700000      1.0661780000      1.1354930000
H                 -4.5719050000     -1.3493790000      0.4925720000
H                 -2.3997830000     -2.3746930000     -0.1441140000
$end

$rem
   BASIS  =  6-311++G(d,p)
   GUI  =  2
   JOB_TYPE  =  SP
   METHOD  =  B3LYP
   SCF_CONVERGENCE  = 8
   SOLVENT_METHOD = sm12
$end

$smx
   solvent dimethylformamide
   charges CM5
$end





