%chk=326-rad.chk
%nproc=8
%mem=30GB
#P UB3LYP/6-311++G(d,p) nosym  opt freq

Radical

-2 2
C                 -1.8373990000      2.7944770000     -0.7928340000
C                 -2.9200770000      1.9826200000     -0.5069970000
C                 -2.6989400000      0.6628560000     -0.0671030000
C                 -0.5102290000      2.3343620000     -0.6551710000
C                 -0.2847850000      0.9922550000     -0.2078030000
C                 -1.4078370000      0.1824470000      0.0778930000
C                  0.5901000000      3.2597990000     -0.9795210000
C                  1.9770270000      2.7396440000     -0.8225350000
C                  2.1213040000      1.3688920000     -0.3644830000
C                  1.0802060000      0.5347220000     -0.0715360000
O                  0.3593830000      4.4312810000     -1.3696760000
O                  2.9837490000      3.4517940000     -1.0743440000
H                 -1.9683870000      3.8159370000     -1.1337660000
H                 -3.9342410000      2.3599120000     -0.6208230000
H                 -3.5410460000      0.0141670000      0.1610370000
H                 -1.2404460000     -0.8311780000      0.4158260000
H                  3.1344950000      0.9996910000     -0.2534940000
S                  1.4558470000     -1.1717440000      0.4958890000
O                  2.9411260000     -1.2735560000      0.5107990000
O                  0.8094950000     -2.0749440000     -0.5036820000
O                  0.8400050000     -1.2848320000      1.8525910000


