%chk=218-PCM.chk
%nproc=8
%mem=30GB
#P UB3LYP/6-311++G(d,p) SCRF=(PCM,Solvent=n,n-DiMethylFormamide)

Quinone PCM in DMF 

0 1
C                  5.0607930000     -2.4805110000      0.1160610000
C                  5.7806010000     -1.5361890000     -0.6059700000
C                  5.1111740000     -0.5301070000     -1.3085920000
C                  3.6636330000     -2.4293820000      0.1417960000
C                  2.9896500000     -1.4168340000     -0.5656040000
C                  3.7229910000     -0.4705960000     -1.2886000000
C                  2.9181490000     -3.4570340000      0.9231290000
C                  1.4252850000     -3.3740820000      0.9191750000
C                  0.7507180000     -2.3641570000      0.2128980000
C                  1.5021000000     -1.3278070000     -0.5617460000
C                  0.6977190000     -4.3292690000      1.6337110000
C                 -0.6466180000     -2.3189780000      0.2240290000
C                 -1.3730410000     -3.2647030000      0.9351850000
O                  3.4966760000     -4.3309100000      1.5451100000
O                  0.9125760000     -0.4477980000     -1.1652620000
H                  5.5592800000     -3.2682190000      0.6671830000
H                 -2.4556640000     -3.2520150000      0.9377180000
H                  3.1845550000      0.3003100000     -1.8257160000
H                  1.2257660000     -5.1152900000      2.1585300000
H                 -1.1451230000     -1.5375060000     -0.3355700000
C                 -0.6872830000     -4.2556000000      1.6397780000
H                  5.6752370000      0.2051020000     -1.8710080000
H                  6.8635300000     -1.5806320000     -0.6236970000
S                 -1.6305330000     -5.4813960000      2.5694750000
O                 -0.8160870000     -6.6883810000      2.6555080000
O                 -2.9880360000     -5.4818620000      2.0319870000
N                 -1.7088790000     -4.8060990000      4.1159200000
H                 -1.2136700000     -5.3849200000      4.7866100000
H                 -2.6738570000     -4.6469860000      4.3867820000





