$molecule
-2 1
Cl                 5.2114690000     -1.4937050000     -0.0034660000
C                  3.6144340000     -0.6473760000     -0.1482370000
C                  3.6348560000      0.7326830000     -0.4826670000
C                  2.4193130000      1.3776100000     -0.5930320000
C                  1.1774270000      0.7275400000     -0.3893350000
C                 -0.0447410000      1.4850550000     -0.5266860000
O                 -0.0631020000      2.7370110000     -0.8286050000
C                 -1.2484390000      0.7143720000     -0.2954380000
C                 -2.5100540000      1.3551020000     -0.4031390000
C                 -3.6997950000      0.6877210000     -0.1974880000
C                 -3.6785380000     -0.6974830000      0.1365030000
C                 -2.4701920000     -1.3524510000      0.2497070000
C                 -1.2263780000     -0.6982240000      0.0451350000
C                 -0.0021370000     -1.4584250000      0.1831550000
O                  0.0143130000     -2.7116330000      0.4854670000
C                  1.1944540000     -0.6890610000     -0.0475500000
C                  2.4563400000     -1.3400040000      0.0625520000
H                  4.5748420000      1.2491480000     -0.6428090000
H                  2.3736100000      2.4326780000     -0.8464850000
H                 -2.4903310000      2.4104190000     -0.6588790000
H                 -4.6490810000      1.2136010000     -0.2891190000
H                 -4.6120600000     -1.2339180000      0.3010400000
H                 -2.4192590000     -2.4072750000      0.5028360000
H                  2.4430500000     -2.3933840000      0.3176770000
$end

$rem
   BASIS  =  6-311++G(d,p)
   GUI  =  2
   JOB_TYPE  =  SP
   METHOD  =  B3LYP
   SCF_CONVERGENCE  = 8
   SOLVENT_METHOD = sm12
$end

$smx
   solvent dimethylformamide
   charges CM5
$end





