%chk=211.chk
%nproc=8
%mem=30GB
#P UB3LYP/6-311++G(d,p) nosym opt freq SCRF=(PCM,Solvent=n,n-DiMethylFormamide)

Oxidized

0 1
C                  5.2787790000     -2.3273670000      0.3577330000
C                  6.0357970000     -1.5169480000     -0.4822930000
C                  5.4046880000     -0.6378640000     -1.3663710000
C                  3.8815600000     -2.2709280000      0.3216040000
C                  3.2515360000     -1.3899360000     -0.5683620000
C                  4.0163040000     -0.5749560000     -1.4087730000
C                  3.0997620000     -3.1529420000      1.2461170000
C                  1.6039580000     -3.1236900000      1.1694300000
C                  0.9961730000     -2.2248180000      0.2827640000
C                  1.7727910000     -1.3201140000     -0.6139870000
C                  0.7758930000     -3.9756720000      1.9850430000
C                 -0.6532840000     -3.8639880000      1.8712920000
C                 -0.4116270000     -2.1378890000      0.1892550000
C                 -1.2135170000     -2.9300160000      0.9628400000
O                  3.7130900000     -3.8629580000      2.0366510000
O                  1.1994680000     -0.5428760000     -1.3695560000
H                  5.7575800000     -3.0078160000      1.0496250000
H                  7.1178520000     -1.5677530000     -0.4488070000
H                  5.9959440000     -0.0061480000     -2.0188430000
H                 -2.2927990000     -2.8538580000      0.8891120000
H                  3.5098220000      0.1017520000     -2.0870620000
H                 -0.8353890000     -1.4272360000     -0.5054520000
C                 -1.5063110000     -4.6785640000      2.6543850000
C                 -0.9803100000     -5.5941130000      3.5363210000
C                  0.4221720000     -5.7253880000      3.6567210000
C                  1.2685030000     -4.9461510000      2.9085390000
O                 -1.7378860000     -6.4097830000      4.3209750000
H                 -2.5804090000     -4.5692430000      2.5482090000
H                  0.8185070000     -6.4562170000      4.3503110000
H                  2.3316970000     -5.0682460000      3.0231230000
H                 -2.6771520000     -6.2468430000      4.1668510000





