$molecule
-2 1
C                 -5.4413060000     -0.2435350000     -0.5722080000
C                 -5.5823800000     -0.6377690000     -1.8913890000
C                 -4.4803140000     -0.5359850000     -2.7726820000
C                 -4.2218360000      0.2625170000     -0.0709880000
C                 -3.1034460000      0.3657920000     -0.9652810000
C                 -3.2746690000     -0.0431370000     -2.3069190000
C                 -4.1528410000      0.6729370000      1.3402050000
C                 -2.8641310000      1.1615510000      1.7208290000
C                 -1.7594760000      1.2530260000      0.8383560000
C                 -1.8007240000      0.8815200000     -0.5278040000
S                 -2.6455390000      1.8692190000      3.3545360000
C                 -2.6659760000      0.5312280000      4.5307890000
C                 -3.0868970000     -0.7702590000      4.2163300000
C                 -2.2616840000      0.8110340000      5.8458940000
C                 -2.2572250000     -0.1695050000      6.8421530000
C                 -3.0742410000     -1.7508640000      5.2025600000
C                 -2.6644830000     -1.4658690000      6.5083620000
C                 -1.8028610000      0.1658990000      8.2472280000
O                 -5.1589790000      0.5721900000      2.1181770000
O                 -0.8019710000      0.9713720000     -1.3315980000
H                 -6.2657410000     -0.3078840000      0.1309270000
H                 -6.5344630000     -1.0253450000     -2.2488720000
H                 -4.5823820000     -0.8442190000     -3.8117150000
H                 -2.4078520000      0.0492250000     -2.9540620000
H                 -0.8156420000      1.6329380000      1.2179890000
H                 -3.4407290000     -0.9830350000      3.2171220000
H                 -1.9342230000      1.8187750000      6.0903570000
H                 -3.4046000000     -2.7551290000      4.9514720000
H                 -2.6664040000     -2.2432770000      7.2671750000
H                 -0.7708490000      0.5384360000      8.2613680000
H                 -1.8404960000     -0.7088410000      8.9042630000
H                 -2.4288410000      0.9428040000      8.7003360000
$end

$rem
   BASIS  =  6-311++G(d,p)
   GUI  =  2
   JOB_TYPE  =  SP
   METHOD  =  B3LYP
   SCF_CONVERGENCE  = 8
   SOLVENT_METHOD = sm12
$end

$smx
   solvent dimethylformamide
   charges CM5
$end





