%chk=092-an.chk
%nproc=8
%mem=30GB
#P UB3LYP/6-311++G(d,p) nosym opt freq SCF=YQC

Reduced

-2 1
C                  4.02457700    2.60596200   -0.43594100
 C                  3.55421000    1.22717200   -0.49414400
 C                  3.08736600    0.58287700    0.63208200
 C                  3.01754800    1.24434000    1.92522800
 C                  3.52810900    2.60613200    1.99047300
 C                  4.00476900    3.25014500    0.87122100
 O                  4.43378200    3.22294300   -1.46279800
 O                  2.53827400    0.66531500    2.94522400
 C                  5.73334900    4.85917400    0.62156700
 C                  4.15967900    2.74459400    4.27591900
 H                  5.86172500    5.93466900    0.76546200
 H                  5.92783200    4.59213200   -0.41879300
 H                  6.43094800    4.32592000    1.28310400
 H                  3.99263400    3.41840600    5.11966900
 H                  5.23691500    2.70500200    4.06010800
 C                  2.57967300   -0.84868300    0.59738000
 C                  1.09244600   -0.92242300    0.35835500
 C                  0.41182100   -1.65379900   -0.53602400
 C                 -1.10018900   -1.56736800   -0.59706600
 C                 -1.83183400   -2.86790400   -0.17525300
 C                 -3.32515900   -2.70126400   -0.15367200
 C                 -4.25448500   -3.28222200   -0.92627700
 C                 -5.71947400   -2.93591200   -0.74783600
 C                 -6.32112300   -2.10778100   -1.91145600
 C                 -7.78745500   -1.83556800   -1.72243500
 C                 -8.40567500   -0.65989100   -1.54658100
 C                 -9.90262700   -0.59306600   -1.35939000
 C                  1.04730400   -2.59368000   -1.53386900
 C                 -3.95536400   -4.29820300   -2.00251500
 C                 -7.71608500    0.68099100   -1.51635300
 H                  2.77463700   -1.28194900    1.58519200
 H                  3.13136200   -1.43403800   -0.14090100
 H                  0.52067400   -0.28011500    1.02530100
 H                 -1.41797100   -1.31556300   -1.61885500
 H                 -1.43926100   -0.74930300    0.04597300
 H                 -1.48761700   -3.13309100    0.83236300
 H                 -1.53459200   -3.68899900   -0.83117200
 H                 -3.68209800   -1.98625600    0.58843900
 H                 -5.85220200   -2.37357700    0.18098500
 H                 -6.30469300   -3.86027200   -0.64094100
 H                 -6.18636700   -2.65986200   -2.84978000
 H                 -5.74919600   -1.18319300   -2.01439600
 H                 -8.41351100   -2.72856200   -1.71381500
 H                -10.35979100   -1.58458700   -1.38755800
 H                -10.36971300    0.02076000   -2.13950700
 H                  2.13246900   -2.49847700   -1.56151100
 H                  0.66761800   -2.39914100   -2.54509800
 H                  0.81541000   -3.64215700   -1.30772900
 H                 -2.89607600   -4.54458700   -2.06720900
 H                 -4.27030800   -3.93973200   -2.98893500
 H                 -4.50751500   -5.22793500   -1.81651300
 H                 -6.63524600    0.61322500   -1.63266600
 H                 -7.92017500    1.19546300   -0.56987300
 H                 -8.10109100    1.33021400   -2.31211800
 H                -10.15837600   -0.12588200   -0.40048900
 O                  3.45009800    3.30578400    3.17515200
 O                  4.38536500    4.57009000    0.98048500
 C                  3.59272700    0.55924600   -1.84794000
 H                  3.79012400    1.74500600    4.51197200
 H                  4.30449800   -0.27653900   -1.86995100
 H                  3.90504300    1.28878400   -2.59573100
 H                  2.61373600    0.15798600   -2.13006600


















