$molecule
-2 1
C                 -4.3907040000     -0.3345420000      0.2255640000
C                 -2.9119630000     -0.6183720000      0.2709140000
C                 -2.4339250000     -1.9461350000      0.4179930000
C                 -1.0859490000     -2.2183410000      0.4587290000
C                 -0.1182010000     -1.1881220000      0.3468710000
C                  1.2836640000     -1.5625880000      0.4037310000
O                  1.6679530000     -2.7727380000      0.5792820000
C                  2.2173040000     -0.4697280000      0.2416270000
C                  3.6104900000     -0.7275130000      0.2795120000
C                  4.5488290000      0.2722720000      0.1239280000
C                  4.1156600000      1.6132130000     -0.0825750000
C                  2.7664290000      1.8963560000     -0.1274350000
C                  1.7762660000      0.8906320000      0.0294230000
C                  0.3823580000      1.2575190000     -0.0255980000
O                  0.0342530000      2.4939330000     -0.2454520000
C                 -0.5637610000      0.1795030000      0.1658650000
C                 -1.9893090000      0.4241390000      0.1484230000
N                 -2.4480130000      1.7419150000      0.0471570000
H                 -4.7145490000      0.1369770000     -0.7236960000
H                 -4.7104720000      0.3477620000      1.0234970000
H                 -4.9718880000     -1.2581920000      0.3180130000
H                 -3.1586330000     -2.7530140000      0.5200700000
H                 -0.7108570000     -3.2276530000      0.5861250000
H                  3.9046530000     -1.7607620000      0.4370560000
H                  5.6119610000      0.0401080000      0.1577430000
H                  4.8472730000      2.4103160000     -0.2045600000
H                  2.4069490000      2.9082160000     -0.2844610000
H                 -3.3057260000      1.8561780000     -0.4776680000
H                 -1.6600910000      2.3686610000     -0.1986500000
$end
$rem
   MAX_SCF_CYCLES=200
   BASIS  =  6-311++G(d,p)
   GUI  =  2
   JOB_TYPE  =  SP
   METHOD  =  B3LYP
   SOLVENT_METHOD = PCM
$end
$pcm
   theory = CPCM
$end
$solvent
   dielectric 37.219
   opticaldielectric 1.43
$end





