$molecule
-2 1
C                 -1.6319640000      2.9002590000     -0.6754170000
C                 -2.8408130000      2.2971510000     -0.3867010000
C                 -2.8723070000      0.9255080000     -0.0142160000
C                 -0.3987730000      2.2055550000     -0.6167830000
C                 -0.4421340000      0.8008170000     -0.2514390000
C                 -1.6924460000      0.2068140000      0.0472520000
C                  0.8337060000      2.9191870000     -0.9264800000
C                  2.0985320000      2.1283740000     -0.8499090000
C                  1.9798480000      0.7339170000     -0.4876380000
C                  0.7850950000      0.0949430000     -0.2060320000
O                  0.8337450000      4.1449610000     -1.2425490000
O                  3.2296930000      2.6385750000     -1.0970560000
O                  0.6909050000     -1.2561670000      0.1619740000
C                  1.8808190000     -1.9698590000      0.3685580000
C                  1.6138870000     -3.3396100000      0.9166980000
C                  0.4235750000     -3.8425940000      1.2347180000
H                 -1.5792690000      3.9468400000     -0.9592000000
H                 -3.7658410000      2.8676150000     -0.4437680000
H                 -3.8175980000      0.4408020000      0.2188760000
H                 -1.7099040000     -0.8406780000      0.3285780000
H                  2.9223070000      0.1972420000     -0.4662940000
H                  2.5455760000     -1.4278340000      1.0590320000
H                  2.4475040000     -2.0737010000     -0.5751330000
H                  2.5086890000     -3.9507320000      1.0458660000
H                 -0.4785130000     -3.2559190000      1.1098610000
H                  0.3295680000     -4.8534950000      1.6207100000
$end

$rem
   BASIS  =  6-311++G(d,p)
   GUI  =  2
   JOB_TYPE  =  SP
   METHOD  =  B3LYP
   SCF_CONVERGENCE  = 8
   SOLVENT_METHOD = sm12
$end

$smx
   solvent dimethylformamide
   charges CM5
$end





