%chk=295-an.chk
%nproc=8
%mem=30GB
#P UB3LYP/6-311++G(d,p) nosym opt freq

Reduced

-2 1
C                 -1.0205420000      2.0221760000     -0.2817120000
C                 -1.4682930000      2.1222820000      1.0215950000
C                 -0.8258000000      1.3909000000      2.0484450000
C                  0.0783260000      1.1959940000     -0.6214520000
C                  0.7326820000      0.4528240000      0.4213510000
C                  0.2528630000      0.5768860000      1.7373070000
C                  0.5354950000      1.0967420000     -1.9802700000
C                  1.6573060000      0.2303600000     -2.2074430000
C                  2.3116400000     -0.5067240000     -1.2309950000
C                  1.8810370000     -0.4249960000      0.1443030000
O                  0.0274710000      1.7100050000     -2.9954170000
O                  2.4542790000     -1.0776410000      1.0700120000
H                 -1.4974880000      2.5736730000     -1.0852950000
H                 -2.3139730000      2.7636630000      1.2590210000
H                 -1.1758500000      1.4684100000      3.0745950000
H                  0.7671400000      0.0050610000      2.5028080000
O                  2.0394890000      0.1820070000     -3.5248150000
C                  3.4743650000     -1.4025080000     -1.5742340000
C                  4.8511930000     -0.7251060000     -1.4157250000
C                  6.0232200000     -1.6568000000     -1.7493770000
C                  7.4043210000     -1.0029390000     -1.6126480000
C                  8.5720600000     -1.9370540000     -1.9571460000
C                  9.9554930000     -1.2864030000     -1.8271330000
C                 11.1198850000     -2.2220400000     -2.1773050000
C                 12.5026110000     -1.5662380000     -2.0493920000
C                 13.6686820000     -2.5201200000     -2.4091650000
C                 15.0321510000     -1.9213010000     -2.2993850000
Br                16.5972120000     -3.6878490000     -2.9432750000
H                  1.3790630000      0.7951390000     -3.9263180000
H                  3.3728240000     -1.7571390000     -2.6062080000
H                  3.4424240000     -2.2697100000     -0.9054200000
H                  4.9436620000     -0.3699220000     -0.3836530000
H                  4.8905370000      0.1586290000     -2.0641730000
H                  5.9050970000     -2.0318850000     -2.7758580000
H                  5.9768790000     -2.5391210000     -1.0965180000
H                  7.5275810000     -0.6333910000     -0.5860610000
H                  7.4488730000     -0.1168590000     -2.2600470000
H                  8.4447810000     -2.3087380000     -2.9829520000
H                  8.5283550000     -2.8223420000     -1.3085100000
H                 10.0850750000     -0.9171560000     -0.8011830000
H                  9.9985150000     -0.3998180000     -2.4736500000
H                 10.9904210000     -2.5924200000     -3.2030220000
H                 11.0797980000     -3.1080190000     -1.5297050000
H                 12.6414640000     -1.1996250000     -1.0248960000
H                 12.5501310000     -0.6815610000     -2.6962460000
H                 13.5181270000     -2.8836390000     -3.4336350000
H                 13.6108630000     -3.4024270000     -1.7592120000
H                 15.4318250000     -1.7404620000     -1.3076850000
H                 15.3323310000     -1.1958320000     -3.0473940000


