%chk=107-rad.chk
%nproc=8
%mem=30GB
#P UB3LYP/6-311++G(d,p) nosym  opt freq

Radical

-1 2
C         -0.42922       -2.08092        1.86701
C          1.00900       -2.38149        1.77545
C          1.91267       -1.50423        1.32969
C          1.43087       -0.13150        0.94978
C         -0.00592        0.17276        1.05070
C         -0.91719       -0.70868        1.47457
O         -1.21887       -2.94355        2.24773
O          2.22296        0.71990        0.55029
N         -2.28811       -0.52600        1.60789
N          3.29479       -1.70316        1.22645
C         -3.18914        0.53783        1.17242
C         -4.62621        0.08971        1.50749
C         -2.90566        1.83662        1.93673
C         -3.09220        0.75028       -0.34302
C          3.96864       -2.76008        0.44646
C          3.67937       -4.15864        1.00095
C          5.48367       -2.50196        0.55660
C          3.55334       -2.67096       -1.02868
H          1.28607       -3.36749        2.12111
H         -0.26563        1.17776        0.75163
H         -2.74409       -1.40170        1.88976
H          3.70543       -0.78912        0.98464
H         -4.88149       -0.84293        0.99040
H         -5.36040        0.84778        1.21235
H         -4.74397       -0.09182        2.58242
H         -2.92831        1.67044        3.02007
H         -3.65262        2.60304        1.69982
H         -1.92703        2.25861        1.69354
H         -3.25343       -0.18890       -0.88498
H         -2.11418        1.13650       -0.64476
H         -3.84328        1.46985       -0.68844
H          2.65614       -4.48019        0.78408
H          3.82447       -4.19598        2.08640
H          4.34157       -4.90607        0.54841
H          5.81468       -2.53960        1.60112
H          5.74892       -1.51221        0.16652
H          6.05793       -3.24621       -0.00648
H          2.48327       -2.86842       -1.15787
H          4.09988       -3.39948       -1.63794
H          3.75276       -1.67349       -1.43734









