%chk=212.chk
%nproc=8
%mem=30GB
#P UB3LYP/6-311++G(d,p) nosym opt freq

Oxidized

0 1
O     3.8958046304   -2.3292252475   -0.0688781483
C     3.0245863781   -1.4452966972    0.0129588789
C     3.3937631251   -0.0687999487    0.2282786005
C     4.7150455993    0.3207272604    0.3515554846
C     4.9995536567    1.6537516943    0.5561653392
C     3.9869027519    2.5774671855    0.6359143012
C     2.6734992176    2.1903221117    0.5133866070
C     2.3862408359    0.8660700737    0.3098939017
C     0.9786831756    0.4966528215    0.1852325365
O     0.0661350406    1.3501576034    0.2560698600
C     0.6178969984   -0.8961133426   -0.0305001122
C    -0.6982362800   -1.3020359431   -0.1691549244
C    -1.0243681046   -2.6457231150   -0.3955857757
C    -0.0161306169   -3.5600940715   -0.4763114745
C     1.3037507423   -3.1872315732   -0.3400285410
C     1.6247568690   -1.8658661619   -0.1183531675
N    -1.7646362496   -0.3809435695   -0.0242549081
C    -2.3512136551   -0.0424147457    1.2405498717
C    -3.8082993517    0.4205937041    1.0670388424
C    -3.9487331851    1.5284162847    0.0852979624
C    -2.9233187310    1.5732651097   -0.9952989057
C    -2.2886359339    0.2412965128   -1.2076331101
H     5.5170287584   -0.3994800967    0.2900220978
H     6.0318511401    1.9860665573    0.6564656082
H     4.2018371048    3.6316588847    0.7972044615
H     1.8556783565    2.9104038327    0.5740968094
H    -2.0550847572   -2.8952099913   -0.4955488871
H    -0.2759068269   -4.6108971134   -0.6537862856
H     2.0645831448   -3.9421938766   -0.4100454637
H    -1.8045131854    0.6110662217    1.9024839635
H    -2.4995757761   -1.0192591860    1.8180361465
H    -4.1588690156    0.7387115942    2.0511408007
H    -4.4218251637   -0.4430965544    0.7579324964
H    -4.0521981964    2.4889078121    0.6350343692
H    -4.9486736642    1.3969208143   -0.4257846834
H    -3.3788812924    1.8517284452   -1.9945370112
H    -2.2333060682    2.4025260885   -0.7769460274
H    -1.5688614604    0.2396474373   -2.0534238859
H    -3.1163300112   -0.4424768154   -1.5674874875


