%chk=017-PCM.chk
%nproc=8
%mem=30GB
#P UB3LYP/6-311++G(d,p) SCRF=(PCM,Solvent=n,n-DiMethylFormamide)

Quinone PCM in DMF 

0 1
C                  2.5611520000     -0.9114090000     -0.1425140000
C                  1.3133130000     -0.0959360000     -0.0072950000
C                  1.2609480000      1.2268610000      0.2365470000
Cl                 2.6864550000      2.2046480000      0.4354950000
C                 -0.0252260000      1.9856640000      0.3606760000
O                 -0.0491980000      3.1748040000      0.5765730000
C                 -1.2775590000      1.1845590000      0.2017060000
C                 -1.2885320000     -0.1392570000     -0.0384780000
C                 -2.5365810000     -0.9530850000     -0.1988140000
C                  0.0256920000     -0.8485020000     -0.1552560000
O                  0.0568750000     -2.0474580000     -0.3720390000
Cl                -2.7520930000      2.0915180000      0.3507730000
H                  2.5994650000     -1.6697390000      0.6448210000
H                  2.5521070000     -1.4547720000     -1.0904590000
H                  3.4534050000     -0.2932000000     -0.0861300000
H                 -3.1603240000     -0.8799610000      0.6963790000
H                 -3.1343870000     -0.5782680000     -1.0344020000
H                 -2.2855120000     -1.9964660000     -0.3775840000





