$molecule
-1 2
O                  2.3215880000      1.6540690000      0.3496470000
C                  1.6625290000      0.4826820000      0.2205650000
C                  2.3751570000     -0.7130220000      0.2555510000
C                  1.6995900000     -1.9339070000      0.1223310000
C                  0.3242810000     -1.9736830000     -0.0449390000
C                 -0.4182780000     -0.7805080000     -0.0836230000
C                 -1.8859690000     -0.8350400000     -0.2626020000
O                 -2.4984870000     -1.9278280000     -0.3826500000
C                 -2.5614070000      0.4351510000     -0.2897280000
C                 -1.9057060000      1.6402070000     -0.1595100000
C                 -0.4915400000      1.7275770000      0.0143260000
O                  0.1140710000      2.8536940000      0.1349750000
C                  0.2476150000      0.4679520000      0.0496520000
H                  1.6000330000      2.3612760000      0.2929000000
H                  3.4509800000     -0.6719370000      0.3867800000
H                  2.2680920000     -2.8593970000      0.1514470000
H                 -0.2124480000     -2.9086500000     -0.1492830000
H                 -3.6391630000      0.4022150000     -0.4207440000
H                 -2.4509370000      2.5791490000     -0.1850960000
$end
$rem
   MAX_SCF_CYCLES=200
   BASIS  =  6-311++G(d,p)
   GUI  =  2
   JOB_TYPE  =  SP
   METHOD  =  B3LYP
   SOLVENT_METHOD = COSMO
$end
$solvent
   dielectric 37.219
   opticaldielectric 1.43
$end





