%chk=112-an.chk
%nproc=8
%mem=30GB
#P UB3LYP/6-311++G(d,p) nosym opt freq

Reduced

-2 1
O                  2.5518570000     -1.0232980000     -0.2560520000
C                  1.2926380000     -0.4663710000     -0.1252860000
C                  1.0511760000      0.9012380000     -0.0013840000
Cl                 2.4468760000      2.0286380000     -0.0085570000
C                 -0.2512560000      1.4430890000      0.1309060000
O                 -0.6055840000      2.6995700000      0.2543270000
C                 -1.2929640000      0.4660260000      0.1250520000
C                 -1.0514020000     -0.9009510000      0.0014950000
Cl                -2.4469890000     -2.0289600000      0.0097800000
C                  0.2515270000     -1.4431520000     -0.1304670000
O                  0.6047510000     -2.6998840000     -0.2533820000
O                 -2.5515280000      1.0236050000      0.2545360000
H                  2.2762890000     -1.9763510000     -0.3114440000
H                 -2.2753910000      1.9768020000      0.3104760000


