$molecule
-1 2
O                  1.5335600000     -3.0729830000      0.0826760000
C                  1.2985810000     -1.8403530000      0.0442280000
C                  2.3843570000     -0.8593030000     -0.0063870000
C                  3.7244570000     -1.2973250000     -0.0119030000
C                  4.7665660000     -0.3909810000     -0.0593150000
C                  4.4906750000      0.9904550000     -0.1028850000
C                  3.1816520000      1.4351240000     -0.0980590000
C                  2.1037040000      0.5264840000     -0.0499300000
C                  0.7261600000      1.0593780000     -0.0469490000
O                  0.5612410000      2.3053910000     -0.0881410000
C                 -0.3647230000      0.0858420000      0.0029990000
C                 -1.7661200000      0.4879360000      0.0102980000
C                 -2.1982470000      1.8416940000     -0.0295100000
C                 -3.5411530000      2.1770970000     -0.0207370000
C                 -4.5333560000      1.1845650000      0.0281210000
C                 -4.1514960000     -0.1416410000      0.0677160000
C                 -2.7889210000     -0.5167150000      0.0600790000
C                 -2.4219880000     -1.8975780000      0.1018760000
C                 -1.1117260000     -2.2669670000      0.0949160000
C                 -0.0623070000     -1.3073680000      0.0462700000
H                  3.9010210000     -2.3661000000      0.0223490000
H                  5.7948500000     -0.7402600000     -0.0630850000
H                  5.3073680000      1.7054310000     -0.1402560000
H                  2.9417570000      2.4910760000     -0.1309310000
H                 -1.4395740000      2.6078790000     -0.0671650000
H                 -3.8260300000      3.2245340000     -0.0522650000
H                 -5.5847490000      1.4554100000      0.0346660000
H                 -4.9007200000     -0.9277510000      0.1058360000
H                 -3.2102090000     -2.6445530000      0.1392550000
H                 -0.8146280000     -3.3084200000      0.1262370000
$end
$rem
   MAX_SCF_CYCLES=200
   BASIS  =  6-311++G(d,p)
   GUI  =  2
   JOB_TYPE  =  SP
   METHOD  =  B3LYP
   SOLVENT_METHOD = PCM
$end
$pcm
   theory = CPCM
$end
$solvent
   dielectric 37.219
   opticaldielectric 1.43
$end





