$molecule
-1 2
C                  3.7362650000      0.0881790000     -0.2305650000
C                  2.7733300000      0.1299170000      0.9716410000
C                  1.3211200000      0.2744930000      0.5819990000
C                  0.5925010000     -0.9628150000      0.3416400000
O                  1.1718790000     -2.0677630000      0.4631980000
C                 -0.8272780000     -0.8419560000     -0.0449610000
C                 -1.6517450000     -1.9641330000     -0.2940510000
O                 -1.1960880000     -3.2526920000     -0.1894150000
C                 -2.9846040000     -1.7804510000     -0.6609050000
O                 -3.7556300000     -2.9100470000     -0.8948280000
C                 -3.5327700000     -0.5090730000     -0.7906730000
O                 -4.8600580000     -0.3954660000     -1.1575750000
C                 -2.7569390000      0.6122360000     -0.5541380000
C                 -1.4017740000      0.4624030000     -0.1792000000
C                 -0.6426870000      1.6758520000      0.0571060000
C                  0.7266080000      1.5158010000      0.4358940000
O                  1.4156990000      2.6907960000      0.6436070000
O                 -1.1899720000      2.8365050000     -0.0740160000
O                 -3.3515680000      1.8253190000     -0.6967070000
H                  3.4819740000     -0.7578120000     -0.8725920000
H                  3.6706300000      1.0000290000     -0.8329320000
H                  4.7761330000     -0.0305190000      0.0969600000
H                  2.8703180000     -0.8081830000      1.5230650000
H                  3.0832280000      0.9284730000      1.6639750000
H                 -1.9424110000     -3.8257040000     -0.4065680000
H                  2.3032450000      2.4618900000      0.9362330000
H                 -2.5826900000      2.4826130000     -0.4697170000
H                 -4.6409510000     -2.6124920000     -1.1356000000
H                 -5.0415990000      0.5554590000     -1.1900020000
$end
$rem
   MAX_SCF_CYCLES=200
   BASIS  =  6-311++G(d,p)
   GUI  =  2
   JOB_TYPE  =  SP
   METHOD  =  B3LYP
   SOLVENT_METHOD = PCM
$end
$pcm
   theory = CPCM
$end
$solvent
   dielectric 37.219
   opticaldielectric 1.43
$end






