%chk=231-an.chk
%nproc=8
%mem=30GB
#P UB3LYP/6-311++G(d,p) nosym opt freq SCRF=(PCM,Solvent=n,n-DiMethylFormamide)

Reduced

-2 1
C                  5.9015280000     -5.2058010000      1.0748490000
C                  6.7798620000     -5.0787980000      0.0140960000
C                  6.5479010000     -4.0847070000     -0.9699890000
C                  4.7670600000     -4.3726900000      1.2180960000
C                  4.5314360000     -3.3627320000      0.2183730000
C                  5.4466000000     -3.2559890000     -0.8552630000
C                  3.8908270000     -4.5768910000      2.3713630000
C                  2.8012840000     -3.6698700000      2.3795930000
C                  2.5683650000     -2.6714420000      1.3913090000
C                  3.3934510000     -2.4447620000      0.2609490000
O                  4.1171830000     -5.4819800000      3.2538610000
O                  3.1996530000     -1.5492900000     -0.6389400000
H                  6.0458390000     -5.9547970000      1.8476070000
H                  7.6437510000     -5.7374300000     -0.0652870000
H                  5.2359020000     -2.4834620000     -1.5885990000
Cl                 1.6668330000     -3.8363560000      3.7549920000
H                  7.2325010000     -3.9749170000     -1.8100330000
Cl                 1.1441790000     -1.5958860000      1.5373240000


