$molecule
-2 1
C                  5.7558610000     -5.2813300000      1.2502050000
C                  6.7304960000     -5.1597080000      0.2846340000
C                  6.6120560000     -4.1344540000     -0.6891050000
C                  4.6363850000     -4.4154320000      1.3045180000
C                  4.5052270000     -3.3541210000      0.3044760000
C                  5.5378630000     -3.2533990000     -0.6896360000
C                  3.6652430000     -4.6365010000      2.3710160000
C                  2.5840790000     -3.7246060000      2.3442830000
C                  2.4472340000     -2.7016880000      1.3897670000
C                  3.3594160000     -2.4429130000      0.3346810000
O                  3.7965270000     -5.5843570000      3.2518850000
O                  3.1775190000     -1.4774270000     -0.5204550000
H                  5.7980360000     -6.0482400000      2.0183560000
C                  5.5096340000     -2.1948210000     -1.7768570000
H                  7.5834850000     -5.8380130000      0.2628700000
H                  7.3778820000     -4.0295830000     -1.4580160000
H                  1.8237800000     -3.8404920000      3.1191150000
H                  1.5821270000     -2.0382670000      1.4380060000
H                  5.4839940000     -1.1873400000     -1.3562540000
H                  4.6022390000     -2.2632710000     -2.3806830000
H                  6.3952180000     -2.3064510000     -2.4221150000
$end
$rem
   MAX_SCF_CYCLES=200
   BASIS  =  6-311++G(d,p)
   GUI  =  2
   JOB_TYPE  =  SP
   METHOD  =  B3LYP
   SOLVENT_METHOD = PCM
$end
$pcm
   theory = CPCM
$end
$solvent
   dielectric 37.219
   opticaldielectric 1.43
$end






