%chk=237-an.chk
%nproc=8
%mem=30GB
#P UB3LYP/6-311++G(d,p) nosym opt freq

Reduced

-2 1
C                  5.7490750000     -5.2903240000      1.2397330000
C                  6.7268220000     -5.1617550000      0.2775220000
C                  6.6161700000     -4.1309970000     -0.6843080000
C                  4.6382520000     -4.4161780000      1.2968130000
C                  4.5068380000     -3.3629040000      0.3009730000
C                  5.5435390000     -3.2474260000     -0.6856810000
C                  3.6665780000     -4.6265550000      2.3725020000
C                  2.5816880000     -3.7130460000      2.3546370000
C                  2.4426090000     -2.6987270000      1.4010340000
C                  3.3514190000     -2.4560760000      0.3330440000
O                  3.8001510000     -5.5626900000      3.2528970000
O                  3.1570150000     -1.5095620000     -0.5260720000
H                  5.7893730000     -6.0637370000      2.0003360000
C                  5.5182260000     -2.1910040000     -1.7736770000
H                  7.5777800000     -5.8419200000      0.2481100000
H                  7.3807990000     -4.0321600000     -1.4538930000
H                  1.8310010000     -3.8275500000      3.1375910000
H                  1.5814940000     -2.0313760000      1.4450840000
H                  5.4454250000     -1.1847140000     -1.3579550000
H                  4.6344180000     -2.2941010000     -2.4087400000
H                  6.4256270000     -2.2696090000     -2.3892600000


