%chk=033.chk
%nproc=8
%mem=30GB
#P UB3LYP/6-311++G(d,p) nosym opt freq

Oxidized

0 1
C    -1.7218457492    1.0645710665    0.6309569579
C    -1.1090745958   -0.1274780300   -0.0750064266
C    -1.6097270951   -1.3875850534    0.6150234811
C    -1.5967675064   -0.1991074560   -1.4994858705
C     0.3553431598    0.0016785167    0.0245032373
C     1.0912618486   -0.9222465187    0.6222296092
C     2.5432061341   -0.8124855790    0.7310402723
O     3.2390115358   -1.7064965952    1.3074956796
C     3.1726521794    0.3836757125    0.1420351864
C     2.4650190607    1.3240787966   -0.4614979856
C     1.0015182128    1.1710748911   -0.5477155144
O     0.3805234211    2.0966849576   -1.1329349913
H    -2.5503702254    1.5129736953    0.0283348835
H    -2.0509511804    0.7618584144    1.6355721247
H    -0.9568692657    1.8699569962    0.7873519908
H    -2.6998384820   -1.5219868567    0.4656516324
H    -1.4335189099   -1.3501244943    1.7089555528
H    -1.1301919116   -2.2968341378    0.2022807154
H    -1.9700055624   -1.2093781054   -1.7726206890
H    -2.4744901579    0.4839989730   -1.6002920565
H    -0.8175536949    0.0565203904   -2.2366504445
H     0.6530350977   -1.8181767465    1.0673888765
H     4.2619460646    0.4333070187    0.2417892931
H     2.9576876219    2.1915201439   -0.8844055145


