%chk=018-an-PCM.chk
%nproc=8
%mem=30GB
#P UB3LYP/6-311++G(d,p) SCRF=(PCM,Solvent=n,n-DiMethylFormamide)

Reduced 

-2 1
C                 -1.5834750000      0.7203230000      1.5050270000
C                 -2.7544450000      1.1597250000      0.7598160000
C                 -2.6789140000      1.0889390000     -0.6420000000
C                 -1.5740350000      0.6328650000     -1.4352060000
C                 -0.4021380000      0.1958170000     -0.6900630000
C                 -0.4783540000      0.2648400000      0.7118010000
O                 -1.6279340000      0.6157930000     -2.7269110000
O                 -1.5304480000      0.7350600000      2.7967960000
Cl                 0.8929040000     -0.2439170000      1.7900370000
Cl                -4.0521220000      1.5928060000     -1.7200460000
C                  0.7838480000     -0.2935270000     -1.5808940000
C                  1.2184450000      0.8733500000     -2.5092270000
C                  2.0800580000     -0.7791810000     -0.8943480000
C                  0.2946430000     -1.4915240000     -2.4396230000
C                 -3.9388560000      1.6532420000      1.6504500000
C                 -3.4450120000      2.8489430000      2.5098770000
C                 -5.2324560000      2.1453390000      0.9635720000
C                 -4.3786560000      0.4878690000      2.5780850000
H                  0.3522760000      1.2487830000     -3.0554960000
H                  1.9835140000      0.5276050000     -3.2216860000
H                  1.6555310000      1.6801590000     -1.9089760000
H                  2.5565840000     -0.0020670000     -0.2954260000
H                  2.7789610000     -1.0737580000     -1.6910870000
H                  1.9173050000     -1.6434890000     -0.2492990000
H                  0.0807030000     -2.3488000000     -1.7903380000
H                  1.0773590000     -1.7929760000     -3.1530460000
H                 -0.6071600000     -1.2076900000     -2.9835650000
H                 -2.5444210000      2.5614820000      3.0538810000
H                 -4.2267000000      3.1530090000      3.2233020000
H                 -3.2277740000      3.7057130000      1.8610120000
H                 -5.0647130000      3.0075760000      0.3169650000
H                 -5.9292550000      2.4455040000      1.7600680000
H                 -5.7138980000      1.3701370000      0.3661740000
H                 -3.5142620000      0.1091530000      3.1249290000
H                 -4.8181540000     -0.3172270000      1.9772990000
H                 -5.1430480000      0.8362230000      3.2900160000





