$molecule
-1 2
C                  5.6730680000     -5.1030470000      1.2822580000
C                  6.6816350000     -5.0195950000      0.3482890000
C                  6.5914370000     -4.0630490000     -0.6985630000
C                  4.5454710000     -4.2570650000      1.2250450000
C                  4.4553180000     -3.2977820000      0.1750560000
C                  5.4854130000     -3.2188030000     -0.7715260000
C                  3.4904840000     -4.3782800000      2.2415790000
C                  2.3825520000     -3.4684100000      2.0920660000
C                  2.2918970000     -2.5422720000      1.0814630000
C                  3.2991840000     -2.3845040000      0.0627130000
O                  3.5576080000     -5.2221840000      3.1744410000
O                  3.2103740000     -1.5364410000     -0.8588220000
C                  7.6353260000     -3.9743200000     -1.6681400000
N                  8.4925410000     -3.9168470000     -2.4463100000
H                  5.7151030000     -5.8229430000      2.0915080000
H                  7.5446420000     -5.6736020000      0.3997200000
H                  5.3941670000     -2.4815060000     -1.5603560000
H                  1.5967130000     -3.5496870000      2.8379170000
H                  1.4347960000     -1.8785540000      1.0129520000
$end
$rem
   MAX_SCF_CYCLES=200
   BASIS  =  6-311++G(d,p)
   GUI  =  2
   JOB_TYPE  =  SP
   METHOD  =  B3LYP
   SOLVENT_METHOD = PCM
$end
$pcm
   theory = CPCM
$end
$solvent
   dielectric 37.219
   opticaldielectric 1.43
$end






