$molecule
-2 1
C                  5.7132790000     -5.2406850000      1.1199080000
C                  6.6565850000     -5.0969330000      0.1290940000
C                  6.5215270000     -4.0737160000     -0.8359650000
C                  4.6299600000     -4.3409130000      1.2492710000
C                  4.4749470000     -3.3095320000      0.2404450000
C                  5.4708810000     -3.1867310000     -0.7509660000
C                  3.6965220000     -4.5055340000      2.3461490000
C                  2.6025930000     -3.5790790000      2.3289740000
C                  2.4672030000     -2.5839940000      1.3515380000
C                  3.3525330000     -2.3823440000      0.2507560000
O                  3.8318310000     -5.4042870000      3.2611360000
O                  3.1830050000     -1.4755440000     -0.6454130000
H                  5.7497570000     -6.0670340000      1.8219630000
H                  5.3836130000     -2.3452140000     -1.4304470000
Br                 7.9428060000     -6.5866850000     -0.1371070000
Br                 8.0255380000     -3.6033010000     -2.0448270000
C                  1.5942380000     -3.6963170000      3.4438800000
H                  1.6095810000     -1.9114480000      1.4006550000
H                  2.0579170000     -3.5151940000      4.4240620000
H                  1.1860970000     -4.7142750000      3.4993610000
H                  0.7697570000     -2.9857700000      3.3093740000
$end
$rem
   MAX_SCF_CYCLES=200
   BASIS  =  6-311++G(d,p)
   GUI  =  2
   JOB_TYPE  =  SP
   METHOD  =  B3LYP
   SOLVENT_METHOD = COSMO
$end
$solvent
   dielectric 37.219
   opticaldielectric 1.43
$end





