%chk=111-an-PCM.chk
%nproc=8
%mem=30GB
#P UB3LYP/6-311++G(d,p) SCRF=(PCM,Solvent=n,n-DiMethylFormamide)

Reduced 

-2 1
O                 -2.7252300000     -0.2031280000      0.4485040000
C                 -1.3497560000     -0.0568330000      0.2276990000
C                 -0.7074870000      1.1826600000      0.2663440000
C                  0.6902590000      1.2876750000      0.0366030000
O                  1.4224730000      2.3954250000      0.0442370000
C                  1.3498130000      0.0567830000     -0.2277990000
C                  0.7075610000     -1.1826380000     -0.2664020000
C                 -0.6901410000     -1.2877760000     -0.0359850000
O                 -1.4221100000     -2.3956170000     -0.0431110000
O                  2.7251110000      0.2032380000     -0.4492520000
H                 -2.7769380000     -1.1872980000      0.3380140000
H                 -1.2792140000      2.0860410000      0.4752590000
H                  1.2790870000     -2.0860150000     -0.4758550000
H                  2.7765710000      1.1874830000     -0.3382560000





