%chk=071-rad.chk
%nproc=8
%mem=30GB
#P UB3LYP/6-311++G(d,p) nosym  opt freq SCRF=(PCM,Solvent=n,n-DiMethylFormamide)

Radical

-1 2
C                  1.2485470000      1.6082760000     -0.5202410000
C                  0.0062290000      1.1958590000      0.1279460000
C                 -0.3959530000     -0.1141470000      0.1259620000
C                  0.3913240000     -1.1574750000     -0.5256420000
C                  1.6449940000     -0.7767590000     -1.1813020000
C                  2.0398450000      0.5534770000     -1.1316500000
O                  1.6119480000      2.8117590000     -0.5373750000
O                 -0.0007390000     -2.3582960000     -0.5250810000
S                  3.5748150000      1.1291950000     -1.8994320000
C                  4.4654200000      2.0794810000     -0.6253640000
C                  4.3993410000      3.4689360000     -0.6156570000
C                  5.2656160000      1.3864920000      0.2784470000
C                  6.0059170000      2.1002900000      1.2205610000
C                  5.1541970000      4.1748450000      0.3184870000
C                  5.9524680000      3.4936300000      1.2386310000
O                  3.2975900000      2.0442580000     -3.0186490000
O                  4.4486820000     -0.0342120000     -2.1601230000
H                  3.7519880000      3.9683150000     -1.3222650000
H                  5.3158880000      0.3058860000      0.2299570000
H                  5.1099310000      5.2586580000      0.3350220000
H                  6.6293450000      1.5682120000      1.9313310000
C                 -1.6817640000     -0.5383640000      0.7908630000
C                 -0.8106980000      2.2782790000      0.7872330000
H                  6.5312500000      4.0486580000      1.9699570000
H                 -2.5447020000     -0.0126410000      0.3648330000
H                 -1.6719720000     -0.3101210000      1.8636420000
H                 -1.8237110000     -1.6107870000      0.6618400000
H                 -1.8081880000      2.3587390000      0.3382430000
H                 -0.3020000000      3.2358370000      0.6785040000
H                 -0.9594080000      2.0758230000      1.8547440000
C                  2.3822700000     -1.8979140000     -1.8701190000
H                  1.7478870000     -2.7828370000     -1.8431370000
H                  3.3303740000     -2.1199230000     -1.3739420000
H                  2.6331300000     -1.6470500000     -2.9019250000


