$molecule
-2 1
C                  5.8338240000     -5.2163290000      1.1773940000
C                  6.7328150000     -5.1258690000      0.1389740000
C                  6.5633690000     -4.1373670000     -0.8568820000
C                  4.6947890000     -4.3835300000      1.2463380000
C                  4.5388410000     -3.3506690000      0.2445680000
C                  5.4731380000     -3.2982010000     -0.8137630000
C                  3.7479150000     -4.5596260000      2.3295160000
C                  2.6733090000     -3.6070340000      2.3357760000
C                  2.5165360000     -2.6051930000      1.3539040000
C                  3.4408660000     -2.4049300000      0.2732700000
O                  3.8718970000     -5.4954640000      3.2090570000
O                  3.3140160000     -1.4679970000     -0.6046980000
H                  5.9800820000     -5.9135470000      1.9954380000
H                  5.2766620000     -2.5820360000     -1.6044600000
Br                 8.4404090000     -6.1194430000      0.3122860000
Br                 7.6212640000     -4.1844910000     -2.5338320000
C                  1.6689780000     -3.7374600000      3.4577210000
C                  1.3427110000     -1.6550660000      1.4162190000
H                  2.0387580000     -4.4849040000      4.1635460000
H                  0.6785990000     -4.0658060000      3.1016450000
H                  1.5081510000     -2.7859160000      3.9847250000
H                  0.3828020000     -2.1848240000      1.4994970000
H                  1.3443790000     -1.0481060000      0.5078150000
H                  1.3966970000     -0.9736220000      2.2811950000
$end
$rem
   MAX_SCF_CYCLES=200
   BASIS  =  6-311++G(d,p)
   GUI  =  2
   JOB_TYPE  =  SP
   METHOD  =  B3LYP
   SOLVENT_METHOD = COSMO
$end
$solvent
   dielectric 37.219
   opticaldielectric 1.43
$end





