$molecule
-2 1
C                 -0.6673730000     -1.2246510000      2.5414880000
C                 -0.8005440000     -1.8024090000      1.2045130000
C                 -0.4959440000     -1.1341160000      0.0634660000
C                  0.0673480000      0.2158770000      0.0278810000
C                  0.3013610000      0.8039190000      1.3241940000
C                 -0.2322160000      0.1371270000      2.5174840000
O                 -0.9541490000     -1.9289110000      3.5610520000
O                  0.3748720000      0.7098490000     -1.1100430000
S                 -0.6311540000      1.0883270000      3.9533960000
C                  0.6122910000      0.7017640000      5.2331530000
C                  0.5308060000     -0.5194100000      5.9060420000
C                  1.6202680000      1.6193230000      5.5239800000
C                  2.5427230000      1.3230000000      6.5276280000
C                  1.4628960000     -0.8071680000      6.9025860000
C                  2.4645600000      0.1139230000      7.2235730000
O                 -0.5190170000      2.5411990000      3.6925030000
O                 -1.9135360000      0.6508360000      4.5538260000
H                 -1.1916590000     -2.8186700000      1.1763140000
H                 -0.6303600000     -1.6012460000     -0.9113480000
H                 -0.2358080000     -1.2242670000      5.5984850000
H                  1.6756670000      2.5293440000      4.9407480000
H                  3.3325060000      2.0329640000      6.7587020000
H                  1.4106280000     -1.7571830000      7.4280520000
H                  3.1877710000     -0.1148840000      8.0024740000
C                  1.3082610000      1.8481060000      1.4542370000
C                  1.5989690000      2.7656030000      0.2704010000
O                  1.9969950000      2.0067240000      2.4786230000
H                  0.6807260000      3.1808760000     -0.1528030000
H                  2.0602880000      2.1991120000     -0.5437230000
H                  2.2614150000      3.5619620000      0.6239360000
$end

$rem
   BASIS  =  6-311++G(d,p)
   GUI  =  2
   JOB_TYPE  =  SP
   METHOD  =  B3LYP
   SCF_CONVERGENCE  = 8
   SOLVENT_METHOD = sm12
$end

$smx
   solvent dimethylformamide
   charges CM5
$end





