%chk=039-an.chk
%nproc=8
%mem=30GB
#P UB3LYP/6-311++G(d,p) nosym opt freq

Reduced

-2 1
C                 -2.5708130000     -0.6640110000     -0.2041460000
C                 -1.2161630000     -0.0199580000     -0.0501800000
C                 -1.1015660000      1.3359940000      0.2744120000
C                  0.1495060000      2.0113550000      0.4632770000
O                  0.2441660000      3.2768090000      0.7443070000
C                  1.2855120000      1.1511990000      0.2924060000
C                  1.1994680000     -0.2048200000     -0.0392310000
C                  2.4444480000     -1.0460880000     -0.1754960000
C                 -0.0656820000     -0.8637340000     -0.2212180000
O                 -0.1651250000     -2.1302630000     -0.5097330000
H                 -2.7146910000     -1.4814610000      0.5208520000
H                 -3.3753720000      0.0702200000     -0.0650020000
H                 -2.6841930000     -1.1324140000     -1.1920610000
H                 -2.0053510000      1.9385120000      0.3904310000
H                  2.2686770000      1.6122720000      0.4036380000
H                  3.3473880000     -0.4753290000      0.0771600000
H                  2.5576010000     -1.4481500000     -1.1909650000
H                  2.4021910000     -1.9301300000      0.4815500000


