$molecule
-2 1
C                 -2.5664980000     -0.6614920000     -0.2165140000
C                 -1.2106610000     -0.0270950000     -0.0366200000
C                 -1.0955330000      1.3357850000      0.2785570000
C                  0.1512760000      2.0158630000      0.4659640000
O                  0.2464610000      3.2840870000      0.7590060000
C                  1.2823020000      1.1531580000      0.2966410000
C                  1.1927480000     -0.2116590000     -0.0184580000
C                  2.4383670000     -1.0459060000     -0.1782800000
C                 -0.0654980000     -0.8727370000     -0.2014020000
O                 -0.1610410000     -2.1460750000     -0.4952450000
H                 -2.7235170000     -1.4906040000      0.4915540000
H                 -3.3691940000      0.0754670000     -0.0771370000
H                 -2.6720920000     -1.1131890000     -1.2154050000
H                 -2.0024180000      1.9351940000      0.3928050000
H                  2.2682430000      1.6071880000      0.4253470000
H                  3.3417560000     -0.4417730000     -0.0177480000
H                  2.4937410000     -1.5032680000     -1.1787550000
H                  2.4515590000     -1.8929410000      0.5256920000
$end
$rem
   MAX_SCF_CYCLES=200
   BASIS  =  6-311++G(d,p)
   GUI  =  2
   JOB_TYPE  =  SP
   METHOD  =  B3LYP
   SOLVENT_METHOD = COSMO
$end
$solvent
   dielectric 37.219
   opticaldielectric 1.43
$end





