%chk=164-rad.chk
%nproc=8
%mem=30GB
#P UB3LYP/6-311++G(d,p) nosym opt freq

Radical

-3 2
N          3.04574       -1.37450       -3.34467
C          2.45492       -0.11598       -2.98027
C          1.80853        0.12114       -1.74593
C          2.56938        0.94360       -3.88723
C          1.23970        1.38491       -1.43509
C          2.03908        2.19228       -3.59935
C          1.37336        2.42785       -2.39490
S          0.71014        4.09093       -2.14612
O         -0.75000        4.16971       -1.67435
O          1.47324        4.95379       -1.13019
O          0.70418        4.96821       -3.40747
N          0.53628        1.64993       -0.20384
C          0.06648        0.72468        0.77973
N          0.33088       -0.60424        0.72184
C         -0.16305       -1.44473        1.66403
N         -0.94406       -0.96146        2.66113
C         -1.23357        0.36417        2.72699
N         -0.71866        1.19352        1.78601
Cl         0.19584       -3.15524        1.58700
N         -2.09110        0.83091        3.77038
C         -2.59745        2.15946        3.98746
C         -2.28575        3.27764        3.17688
C         -3.47122        2.35699        5.07631
C         -2.83269        4.53412        3.45731
C         -4.01714        3.61617        5.35072
C         -3.69489        4.70458        4.53898
S         -5.12879        3.82940        6.74152
O         -6.07884        2.64952        6.99578
O         -4.44630        4.04257        8.10051
O         -6.08545        5.02603        6.62869
H          3.63346       -1.34359       -4.18502
H          1.78572       -0.67449       -1.03784
H          3.07432        0.80096       -4.83477
H          2.14619        2.98335       -4.33030
H          0.24855        2.61844       -0.01922
H         -2.40842        0.10423        4.43084
H         -1.63439        3.23029        2.32668
H         -3.73316        1.52304        5.71596
H         -2.58685        5.38134        2.82959
H         -4.11136        5.68286        4.74277
C          2.80130       -2.67072       -2.76844
C          3.77172       -3.73236       -2.84199
C          1.55177       -2.94087       -2.19810
C          1.24506       -4.18460       -1.68748
C          3.44401       -5.03407       -2.32860
C          2.15382       -5.24010       -1.73196
C          4.46910       -6.13539       -2.45060
C          5.77754       -5.90322       -3.10322
C          6.10783       -4.62735       -3.57446
C          5.14747       -3.51346       -3.42500
C          6.70307       -6.95789       -3.25364
C          7.93716       -6.73818       -3.86770
C          8.26582       -5.46770       -4.33444
C          7.36046       -4.41615       -4.18838
O          4.24239       -7.25837       -2.03662
O          5.52382       -2.40068       -3.75449
N          1.70417       -6.47485       -1.17251
H          0.76899       -2.19870       -2.17003
H          0.26079       -4.33311       -1.25953
H          6.47368       -7.95486       -2.89900
H          8.63927       -7.55417       -3.98124
H          9.22268       -5.29660       -4.81084
H          7.63994       -3.43873       -4.56146
H          2.25227       -7.33497       -1.11571
H          0.75872       -6.53872       -0.76623










