$molecule
-2 1
C                 -1.3502310000      2.0065570000      0.7882860000
C                 -2.5863810000      1.4302110000      0.2961270000
C                 -2.6141120000      0.2205830000     -0.3960320000
C                 -1.4664350000     -0.5741560000     -0.6991960000
C                 -0.2119690000     -0.0316940000     -0.2136320000
C                 -0.2240510000      1.1797220000      0.4813460000
O                 -1.5351390000     -1.6924350000     -1.3516510000
H                 -3.5599730000     -0.1824770000     -0.7506980000
O                 -1.3062270000      3.1215560000      1.4284740000
I                  1.6558960000      2.0167180000      1.2258770000
C                  1.0348090000     -0.8253920000     -0.4995740000
C                 -3.8439100000      2.2339930000      0.5944290000
C                 -3.9477130000      3.4628950000     -0.3349520000
C                 -5.1505140000      1.4284400000      0.5562290000
H                  0.7354080000     -1.7177190000     -1.0550440000
H                  1.5562290000     -1.1270700000      0.4195850000
H                  1.7624580000     -0.2543410000     -1.0931290000
H                 -3.7145190000      2.6345990000      1.6092430000
H                 -4.8085170000      4.0975700000     -0.0666020000
H                 -4.0710670000      3.1444160000     -1.3777040000
H                 -3.0343270000      4.0544950000     -0.2499580000
H                 -5.9974510000      2.0509890000      0.8742750000
H                 -5.0990440000      0.5553920000      1.2146940000
H                 -5.3724200000      1.0633180000     -0.4533300000
$end
$rem
   MAX_SCF_CYCLES=200
   BASIS  =  6-311++G(d,p)
   GUI  =  2
   JOB_TYPE  =  SP
   METHOD  =  B3LYP
   SOLVENT_METHOD = COSMO
$end
$solvent
   dielectric 37.219
   opticaldielectric 1.43
$end





