$molecule
-2 1
I                 -3.3421870000     -1.0833870000     -0.1471560000
C                 -1.3232230000     -0.3817450000     -0.0109160000
C                 -0.9753400000      0.9694990000     -0.0728630000
I                 -2.4146760000      2.5555600000     -0.0628780000
C                  0.3772150000      1.4691210000     -0.0422180000
O                  0.6913480000      2.7004660000     -0.0212710000
C                  1.3232300000      0.3817350000      0.0111800000
C                  0.9753450000     -0.9694910000      0.0731520000
I                  2.4146690000     -2.5555580000      0.0635390000
C                 -0.3772310000     -1.4691210000      0.0424130000
O                 -0.6913320000     -2.7004770000      0.0216410000
I                  3.3421790000      1.0834000000      0.1473770000
$end

$rem
   BASIS  =  6-311++G(d,p)
   GUI  =  2
   JOB_TYPE  =  SP
   METHOD  =  B3LYP
   SCF_CONVERGENCE  = 8
   SOLVENT_METHOD = sm12
$end

$smx
   solvent dimethylformamide
   charges CM5
$end





