$molecule
0 1
C                 -2.0260430000      0.3635840000      1.5090390000
C                 -2.9526580000      1.2245100000      0.6965350000
C                 -2.5700790000      1.5348240000     -0.5572100000
C                 -1.2845530000      1.0721450000     -1.1755790000
C                 -0.3580980000      0.2109700000     -0.3631980000
C                 -0.7406240000     -0.0992770000      0.8905940000
O                 -0.9941820000      1.3858630000     -2.3116360000
O                 -2.3161710000      0.0501620000      2.6452380000
Br                 0.3129650000     -1.1814940000      2.0610130000
Br                -3.6237640000      2.6169620000     -1.7275960000
C                  0.9367640000     -0.2450260000     -1.0117380000
C                  1.8688050000      0.9363430000     -1.3506710000
C                  0.6909370000     -1.1572050000     -2.2310310000
C                 -4.2477090000      1.6803440000      1.3448370000
C                 -4.0022870000      2.5933160000      2.5636360000
C                 -5.1794630000      0.4988870000      1.6842710000
H                  1.4477910000     -0.8481270000     -0.2611590000
H                  2.0521210000      1.5601510000     -0.4715200000
H                  1.4560890000      1.5609870000     -2.1426060000
H                  2.8333060000      0.5463570000     -1.6872800000
H                  0.0475450000     -2.0017830000     -1.9695350000
H                  1.6470400000     -1.5624250000     -2.5735220000
H                  0.2338820000     -0.6119740000     -3.0565390000
H                 -4.7588750000      2.2828910000      0.5939010000
H                 -4.9585520000      2.9984130000      2.9058200000
H                 -3.3591570000      3.4379580000      2.3017030000
H                 -3.5451250000      2.0487080000      3.3894890000
H                 -6.1441580000      0.8887910000      2.0204200000
H                 -4.7667600000     -0.1251630000      2.4766710000
H                 -5.3624050000     -0.1255020000      0.8054520000
$end
$rem
   MAX_SCF_CYCLES=200
   BASIS  =  6-311++G(d,p)
   GUI  =  2
   JOB_TYPE  =  SP
   METHOD  =  B3LYP
   SOLVENT_METHOD = PCM
$end
$pcm
   theory = CPCM
$end
$solvent
   dielectric 37.219
   opticaldielectric 1.43
$end





