$molecule
-1 2
C                 -1.0338830000      2.6347150000      0.5709650000
C                  0.2872950000      2.7739240000     -0.0225700000
C                  0.9462360000      1.7074730000     -0.5979590000
C                  0.3472150000      0.3785010000     -0.6379980000
C                 -0.9750040000      0.2409670000     -0.0426580000
C                 -1.6305330000      1.3080850000      0.5256750000
O                 -1.6441520000      3.6166940000      1.0879490000
O                  0.9404170000     -0.6164830000     -1.1480530000
O                 -2.9138740000      1.1294030000      0.9968550000
O                 -1.5567090000     -1.0073450000      0.0208620000
C                 -3.0857900000      1.3383120000      2.3958940000
C                 -1.8846960000     -1.5937490000     -1.2355800000
C                  2.3211180000      1.8439880000     -1.2076220000
C                  0.8882410000      4.1688250000      0.0268220000
C                  1.6698930000      4.4122800000      1.2937480000
C                  2.9182320000      4.8760430000      1.4434160000
C                  3.8333080000      5.2747120000      0.3116240000
C                  3.5234910000      5.0432090000      2.8179230000
H                 -2.7981470000      2.3540450000      2.6756210000
H                 -2.5001310000      0.6064980000      2.9685060000
H                 -4.1476690000      1.1814260000      2.6003740000
H                 -2.3091690000     -2.5758000000     -1.0132720000
H                 -0.9937300000     -1.7045600000     -1.8573190000
H                 -2.6388510000     -0.9887430000     -1.7568500000
H                  3.0351040000      2.2831070000     -0.5032010000
H                  2.3096160000      2.4849790000     -2.0990290000
H                  2.6775890000      0.8576000000     -1.5060120000
H                  0.0509350000      4.8758440000      0.0131620000
H                  1.4999760000      4.3531390000     -0.8584630000
H                  1.1123230000      4.1688490000      2.1961780000
H                  3.3907310000      5.1073220000     -0.6698690000
H                  4.7756110000      4.7132530000      0.3561560000
H                  4.1007560000      6.3376150000      0.3837590000
H                  2.8227260000      4.7495900000      3.6026130000
H                  3.8216400000      6.0848960000      2.9994880000
H                  4.4316060000      4.4353380000      2.9285250000
$end
$rem
   MAX_SCF_CYCLES=200
   BASIS  =  6-311++G(d,p)
   GUI  =  2
   JOB_TYPE  =  SP
   METHOD  =  B3LYP
   SOLVENT_METHOD = PCM
$end
$pcm
   theory = CPCM
$end
$solvent
   dielectric 37.219
   opticaldielectric 1.43
$end





