$molecule
0 1
C                  4.9907540000     -2.6335900000      0.0698850000
C                  5.7052320000     -1.6995910000     -0.6653780000
C                  5.0685610000     -0.6749410000     -1.3677000000
C                  3.5981980000     -2.5332190000      0.1244280000
C                  2.9424430000     -1.5009570000     -0.5683670000
C                  3.6844640000     -0.5793110000     -1.3133100000
C                  2.8382390000     -3.5396560000      0.9245320000
C                  1.3502850000     -3.4132090000      0.9480940000
C                  0.6912460000     -2.3822230000      0.2565070000
C                  1.4548680000     -1.3670120000     -0.5299910000
C                  0.6095530000     -4.3486750000      1.6750610000
C                 -0.7038380000     -2.2971490000      0.2945150000
C                 -1.4427020000     -3.2238430000      1.0178020000
O                  3.4086930000     -4.4229950000      1.5375910000
O                  0.8861270000     -0.4650270000     -1.1184520000
H                  5.4859540000     -3.4437250000      0.5901150000
H                 -2.5243240000     -3.1808640000      1.0406750000
H                  3.1579320000      0.2016440000     -1.8473330000
H                  1.1241470000     -5.1512380000      2.1881560000
H                 -1.1912450000     -1.5008720000     -0.2538310000
C                 -0.7723060000     -4.2353320000      1.7077230000
S                  7.5057010000     -1.8213810000     -0.7324010000
S                 -1.7328770000     -5.4381670000      2.6518890000
O                 -0.9518770000     -6.6679870000      2.7131530000
O                 -3.0995460000     -5.3925000000      2.1414820000
N                 -1.7559150000     -4.7691720000      4.2016570000
H                 -1.2694670000     -5.3689150000      4.8603150000
H                 -2.7081370000     -4.5730760000      4.4927370000
O                  7.8563980000     -3.2195810000     -0.5128090000
O                  7.9440390000     -1.0695860000     -1.9041690000
N                  7.9930790000     -0.9515720000      0.6299200000
H                  5.6541270000      0.0206830000     -1.9554890000
H                  8.5673280000     -0.1589480000      0.3617580000
H                  8.4625960000     -1.5574430000      1.2952350000
$end
$rem
   MAX_SCF_CYCLES=200
   BASIS  =  6-311++G(d,p)
   GUI  =  2
   JOB_TYPE  =  SP
   METHOD  =  B3LYP
   SOLVENT_METHOD = COSMO
$end
$solvent
   dielectric 37.219
   opticaldielectric 1.43
$end





