$molecule
0 1
N                 -2.9263150000      1.8492790000      0.2750490000
C                 -2.5270110000      0.5596000000      0.1319940000
C                 -3.5009360000     -0.4650550000      0.0561820000
C                 -3.1379720000     -1.7873290000     -0.0895120000
C                 -1.7898700000     -2.1541840000     -0.1667580000
C                 -0.8100980000     -1.1754900000     -0.0958210000
C                  0.6162550000     -1.6192270000     -0.1829430000
O                  0.9066300000     -2.7983140000     -0.3110370000
C                  1.6700140000     -0.5717340000     -0.1079090000
C                  3.0157270000     -0.9451450000     -0.1864330000
C                  4.0122340000      0.0202240000     -0.1180020000
C                  3.6709410000      1.3679580000      0.0297280000
C                  2.3361380000      1.7464010000      0.1085180000
C                  1.3260120000      0.7810110000      0.0404190000
C                 -0.0989320000      1.2188950000      0.1278330000
O                 -0.3512500000      2.4217520000      0.2588700000
C                 -1.1483460000      0.1959880000      0.0541090000
H                 -3.9051990000      2.0712050000      0.3295710000
H                 -2.2194550000      2.5716590000      0.3300430000
H                 -4.5491150000     -0.1898550000      0.1152700000
H                 -3.9082100000     -2.5486300000     -0.1444270000
H                 -1.4894480000     -3.1870210000     -0.2809590000
H                  3.2534940000     -1.9954840000     -0.3006700000
H                  5.0544620000     -0.2719040000     -0.1792110000
H                  4.4492230000      2.1209200000      0.0830760000
H                  2.0510270000      2.7844810000      0.2230200000
$end
$rem
   MAX_SCF_CYCLES=200
   BASIS  =  6-311++G(d,p)
   GUI  =  2
   JOB_TYPE  =  SP
   METHOD  =  B3LYP
   SOLVENT_METHOD = PCM
$end
$pcm
   theory = CPCM
$end
$solvent
   dielectric 37.219
   opticaldielectric 1.43
$end





