$molecule
-1 2
C                 -2.5849110000     -0.6663070000     -0.2172430000
C                 -1.2439050000     -0.0059420000     -0.0324400000
C                 -1.1269060000      1.3267160000      0.2752490000
C                  0.1478940000      1.9875720000      0.4583360000
O                  0.2394810000      3.2186830000      0.7419370000
C                  1.3105360000      1.1411030000      0.2937610000
C                  1.2290190000     -0.1942830000     -0.0135740000
C                  2.4571730000     -1.0503870000     -0.1785630000
C                 -0.0627320000     -0.8431210000     -0.1942090000
O                 -0.1544200000     -2.0756240000     -0.4783910000
H                 -2.7145890000     -1.4961300000      0.4862810000
H                 -3.3987670000      0.0505610000     -0.0734570000
H                 -2.6719470000     -1.1059580000     -1.2170050000
H                 -2.0128730000      1.9468370000      0.3947800000
H                  2.2782950000      1.6200250000      0.4273870000
H                  3.3679380000     -0.4647100000     -0.0223240000
H                  2.4914320000     -1.5000930000     -1.1770500000
H                  2.4492810000     -1.8889430000      0.5265250000
$end
$rem
   MAX_SCF_CYCLES=200
   BASIS  =  6-311++G(d,p)
   GUI  =  2
   JOB_TYPE  =  SP
   METHOD  =  B3LYP
   SOLVENT_METHOD = COSMO
$end
$solvent
   dielectric 37.219
   opticaldielectric 1.43
$end





