%chk=225.chk
%nproc=8
%mem=30GB
#P UB3LYP/6-311++G(d,p) nosym opt freq SCF=YQC

Oxidized

-2 1
O                  5.49529100   -2.24887700    0.67325100
 S                  5.45929800   -0.91472400    0.02077500
 O                  6.29301000    0.11259200    0.69853600
 O                  5.60985500   -0.95499500   -1.45433600
 C                  3.73834700   -0.33965500    0.29068800
 C                  3.46595900    0.56581300    1.31857300
 C                  2.16020500    0.97734700    1.55954900
 C                  1.10474700    0.49261600    0.78105600
 C                 -0.28244600    0.95607800    1.07020600
 O                 -0.50834200    1.74773900    1.97694600
 C                 -1.38085300    0.42011100    0.21464600
 C                 -2.69767800    0.82762900    0.45238000
 C                 -3.73833400    0.33949700   -0.33393100
 C                 -3.46594500   -0.56613700   -1.36174100
 C                 -2.16022600   -0.97752600   -1.60280200
 C                 -1.10472000   -0.49258800   -0.82441500
 C                  0.28248300   -0.95599400   -1.11364100
 O                  0.50836100   -1.74763400   -2.02040900
 C                  1.38089700   -0.42007200   -0.25806800
 C                  2.69764800   -0.82765700   -0.49574200
 S                 -5.45927100    0.91509300   -0.06512500
 O                 -5.49880700    2.24210300   -0.73186900
 O                 -6.29343100   -0.12043100   -0.72969400
 O                 -5.60582000    0.97097300    1.40985700
 H                  4.29456000    0.94329400    1.90571200
 H                  1.93191700    1.68158900    2.35078200
 H                 -2.90113500    1.51840800    1.26063800
 H                 -4.29448200   -0.94414700   -1.94864300
 H                 -1.93193200   -1.68188200   -2.39392500
 H                  2.90084300   -1.51856300   -1.30396100











