$molecule
0 1
C                 -2.8936440000      3.9400150000      0.4130980000
C                 -4.1745740000      3.4237290000      0.5461570000
C                 -4.3514820000      2.0383270000      0.5311460000
C                 -1.7903890000      3.0919100000      0.2709310000
C                 -1.9857700000      1.6999200000      0.2637880000
C                 -3.2729410000      1.1773430000      0.3942290000
C                 -0.4314080000      3.6833230000      0.1330320000
C                  0.7154830000      2.7365370000     -0.0120890000
C                  0.5201040000      1.3445400000     -0.0192360000
C                 -0.8389000000      0.7531350000      0.1185070000
C                  2.0026660000      3.2591090000     -0.1423890000
C                  3.0812230000      2.3981150000     -0.2791450000
C                  2.9043200000      1.0127230000     -0.2941710000
C                  1.6233670000      0.4964340000     -0.1612730000
O                 -0.2567640000      4.8908730000      0.1382550000
O                 -1.0135690000     -0.4544100000      0.1130650000
H                 -3.4194610000      0.1049290000      0.3913880000
H                  1.4557560000     -0.5733140000     -0.1678350000
H                 -2.7260260000      5.0097620000      0.4196350000
H                  2.1491900000      4.3315240000     -0.1395800000
H                  3.7552790000      0.3546870000     -0.4010390000
O                 -5.5935050000      1.4486730000      0.7355750000
O                  4.3233050000      2.9877260000     -0.4834000000
C                  5.4215340000      2.5972090000      0.2527800000
C                  6.6234450000      3.3943060000     -0.1706550000
O                  5.3849040000      1.7530380000      1.1027770000
H                 -5.0255120000      4.0817750000      0.6531210000
H                  6.4508430000      4.4545820000      0.0285280000
H                  6.7860500000      3.2858790000     -1.2450580000
H                  7.4965970000      3.0511250000      0.3796860000
C                 -6.6920080000      1.8394480000     -0.0000630000
C                 -7.8940240000      1.0430920000      0.4244600000
O                 -6.6555890000      2.6835750000     -0.8501120000
H                 -7.7195980000     -0.0181970000      0.2326420000
H                 -8.7660930000      1.3820190000     -0.1302090000
H                 -8.0598310000      1.1582300000      1.4977240000
$end
$rem
   MAX_SCF_CYCLES=200
   BASIS  =  6-311++G(d,p)
   GUI  =  2
   JOB_TYPE  =  SP
   METHOD  =  B3LYP
   SOLVENT_METHOD = COSMO
$end
$solvent
   dielectric 37.219
   opticaldielectric 1.43
$end





