%chk=074-an.chk
%nproc=8
%mem=30GB
#P UB3LYP/6-311++G(d,p) nosym opt freq

Reduced

-2 1
C          0.59634        1.25230       -0.87131
C         -0.76446        0.82235       -0.50799
C         -1.05106       -0.48413       -0.35649
C          0.05443       -1.48194       -0.39656
C          1.46282       -1.00241       -0.47269
C          1.70324        0.31357       -0.62257
O          0.79156        2.32412       -1.42408
O         -0.18840       -2.68007       -0.30751
S          3.33551        0.90661       -0.66354
C          3.29480        2.56289       -0.00439
C          3.45635        3.66035       -0.85451
C          3.19781        2.74035        1.38116
C          3.23272        4.02945        1.91141
C          3.48320        4.94616       -0.31556
C          3.37218        5.12939        1.06369
O          3.77111        0.98178       -2.04589
O          4.13808        0.16557        0.29749
H          3.55113        3.52635       -1.92993
H          3.12443        1.88855        2.05295
H          3.59567        5.80633       -0.97114
H          3.16423        4.18017        2.98597
H          3.40048        6.13402        1.47882
S         -2.02546        2.01356       -0.41414
C         -1.27474        3.50017        0.22331
C         -1.05573        4.59283       -0.62000
C         -1.00103        3.58887        1.59370
C         -0.47613        4.77166        2.11299
C         -0.52406        5.76919       -0.09274
C         -0.23589        5.85784        1.27013
O         -2.50847        2.29058       -1.75434
O         -2.97358        1.62783        0.61978
H         -1.28433        4.53507       -1.68202
H         -1.21767        2.76111        2.26466
H         -0.26516        4.85522        3.17629
H         -0.33850        6.61973       -0.74426
H          0.17219        6.78011        1.67672
C         -2.42075       -1.09151       -0.17972
C          2.49113       -2.10445       -0.40603
H         -2.64236       -1.22401        0.88383
H         -2.49431       -2.06983       -0.66723
H         -3.21085       -0.49233       -0.64024
H          2.13051       -3.02177       -0.88423
H          2.73157       -2.33596        0.63629
H          3.41179       -1.85642       -0.94096








