%chk=324.chk
%nproc=8
%mem=30GB
#P UB3LYP/6-311++G(d,p) nosym opt freq

Oxidized

0 1
C                 -1.7955490000      2.7567720000     -0.7214200000
C                 -2.8920580000      1.9294050000     -0.5082250000
C                 -2.6827050000      0.5948430000     -0.1705200000
C                 -0.4954320000      2.2639720000     -0.5998710000
C                 -0.2715630000      0.9141290000     -0.2572210000
C                 -1.3879760000      0.0950920000     -0.0475190000
C                  0.6449460000      3.2013760000     -0.8430800000
C                  2.0784240000      2.6333480000     -0.7045180000
C                  2.1990580000      1.2429090000     -0.3498510000
C                  1.1257390000      0.4143690000     -0.1333400000
O                  0.4662220000      4.3610340000     -1.1379960000
O                  3.0312180000      3.3725410000     -0.8961310000
H                 -1.9195060000      3.7998030000     -0.9864010000
H                 -3.8988260000      2.3187630000     -0.6042430000
H                 -3.5264250000     -0.0642730000     -0.0016660000
H                 -1.2823350000     -0.9507010000      0.2149590000
H                  3.2115640000      0.8731150000     -0.2578750000
N                  1.2962330000     -0.8917250000      0.1996510000
C                  2.5900590000     -1.5415160000      0.3659800000
C                  2.4112930000     -3.0080670000      0.7408590000
H                  0.4835040000     -1.4592350000      0.3656070000
H                  3.1629890000     -1.0200210000      1.1419530000
H                  3.1610840000     -1.4563660000     -0.5658440000
H                  1.8692350000     -3.1137190000      1.6850000000
H                  3.3858810000     -3.4843860000      0.8624000000
H                  1.8684360000     -3.5533820000     -0.0365380000





