$molecule
-1 2
C                 -3.9435770000      0.9544450000      0.9299830000
C                 -3.2770390000     -0.0758630000     -0.0124110000
C                 -3.4728970000     -1.4751540000      0.5988300000
C                 -3.9969000000     -0.0477990000     -1.3817330000
C                 -1.7918630000      0.2787180000     -0.2003570000
C                 -1.4365540000      1.5404060000     -0.7535350000
C                 -0.1180180000      1.8951880000     -0.9372190000
C                  0.9356550000      1.0239870000     -0.5855120000
C                  2.3212120000      1.4413970000     -0.7974080000
O                  2.6131140000      2.5614630000     -1.2871080000
C                  3.3482170000      0.4738670000     -0.4038650000
C                  4.7102340000      0.8047990000     -0.5778440000
C                  5.7127220000     -0.0750460000     -0.2217260000
C                  5.3816720000     -1.3336170000      0.3282980000
C                  4.0573900000     -1.6794810000      0.5079340000
C                  3.0137730000     -0.7963980000      0.1514390000
C                  1.6247450000     -1.2099270000      0.3619770000
O                  1.3309120000     -2.3303670000      0.8518690000
C                  0.6002400000     -0.2417940000     -0.0316600000
C                 -0.7623710000     -0.5782200000      0.1453930000
H                 -5.0060570000      0.7211030000      1.0672620000
H                 -3.4612680000      0.9455760000      1.9115320000
H                 -3.8706370000      1.9701720000      0.5338290000
H                 -3.0453910000     -2.2556410000     -0.0357360000
H                 -4.5422870000     -1.6822620000      0.7137940000
H                 -3.0071850000     -1.5532120000      1.5845520000
H                 -3.9255730000      0.9344210000     -1.8551300000
H                 -5.0598490000     -0.2894550000     -1.2638770000
H                 -3.5530970000     -0.7782320000     -2.0640990000
H                 -2.2119210000      2.2444400000     -1.0396640000
H                  0.1499780000      2.8574450000     -1.3588210000
H                  4.9342970000      1.7769550000     -1.0020190000
H                  6.7543450000      0.1981300000     -0.3634300000
H                  6.1692670000     -2.0269570000      0.6089050000
H                  3.7745200000     -2.6380950000      0.9276610000
H                 -0.9498100000     -1.5549910000      0.5713850000
$end
$rem
   MAX_SCF_CYCLES=200
   BASIS  =  6-311++G(d,p)
   GUI  =  2
   JOB_TYPE  =  SP
   METHOD  =  B3LYP
   SOLVENT_METHOD = PCM
$end
$pcm
   theory = CPCM
$end
$solvent
   dielectric 37.219
   opticaldielectric 1.43
$end





