$molecule
-2 1
C                 -2.9005220000      0.4002460000      0.5264370000
C                 -1.9162850000     -0.4134270000     -0.3393020000
C                 -2.2691510000     -0.3315370000     -1.8390370000
C                 -0.4452810000     -0.1674340000     -0.0231330000
C                  0.2673970000      1.0267980000     -0.2022140000
Br                -0.6348540000      2.6453520000     -0.9431020000
C                  1.6442890000      1.2792010000      0.0868470000
O                  2.2541110000      2.3977560000     -0.0964720000
C                  2.3104880000      0.1102230000      0.6260670000
C                  1.6082310000     -1.0789690000      0.8060700000
Br                 2.5884280000     -2.6407400000      1.5502100000
C                  0.2348820000     -1.3366570000      0.5194090000
O                 -0.3560230000     -2.4651600000      0.7105090000
C                  3.7696520000      0.2711170000      0.9659210000
H                 -2.8449610000      1.4719830000      0.3221830000
H                 -2.6787460000      0.2440250000      1.5869160000
H                 -3.9350160000      0.0686340000      0.3450640000
H                 -2.0413380000     -1.4611370000     -0.0485960000
H                 -2.1609590000      0.6803490000     -2.2363870000
H                 -1.6120990000     -0.9938490000     -2.4116320000
H                 -3.3075640000     -0.6579350000     -2.0070090000
H                  4.4043610000     -0.4235770000      0.3986820000
H                  4.0514200000      1.2985970000      0.7258000000
H                  3.9695420000      0.0761420000      2.0285260000
$end
$rem
   MAX_SCF_CYCLES=200
   BASIS  =  6-311++G(d,p)
   GUI  =  2
   JOB_TYPE  =  SP
   METHOD  =  B3LYP
   SOLVENT_METHOD = COSMO
$end
$solvent
   dielectric 37.219
   opticaldielectric 1.43
$end





