$molecule
-2 1
C                 -0.5222680000      1.1748690000     -0.3548530000
C                 -1.4054010000      0.0993130000     -0.7785530000
C                 -1.1655320000     -1.2361490000     -0.5579810000
C                  0.0074150000     -1.7390250000      0.1299150000
C                  0.8759840000     -0.7130530000      0.5487920000
C                  0.6766400000      0.7068920000      0.3454410000
O                 -0.8337720000      2.3824500000     -0.6071850000
O                  0.1912290000     -3.0162770000      0.3152970000
C                  1.6700700000      1.6367420000      0.8404400000
C                  2.9079970000      1.0466040000      1.5709940000
O                  1.6563370000      2.8813420000      0.7518350000
H                 -2.3062450000      0.4213650000     -1.3026890000
H                 -1.8795150000     -1.9852660000     -0.9083100000
H                  1.7668660000     -1.0515350000      1.0683930000
H                  3.4823230000      0.3724490000      0.9243950000
H                  2.6233600000      0.4706940000      2.4596410000
H                  3.5371720000      1.8891520000      1.8690390000
$end
$rem
   MAX_SCF_CYCLES=200
   BASIS  =  6-311++G(d,p)
   GUI  =  2
   JOB_TYPE  =  SP
   METHOD  =  B3LYP
   SOLVENT_METHOD = COSMO
$end
$solvent
   dielectric 37.219
   opticaldielectric 1.43
$end





