$molecule
-2 2
C                 -1.7364870000      1.8848090000     -5.1520030000
C                 -1.6380550000      0.5615390000     -5.5397520000
C                 -1.2700310000     -0.4223010000     -4.5904540000
C                 -1.4762490000      2.2865180000     -3.8236840000
C                 -1.1064860000      1.2952280000     -2.8682220000
C                 -1.0123210000     -0.0531210000     -3.2854890000
C                 -1.5942590000      3.7040410000     -3.4695750000
C                 -0.8336430000      1.6465570000     -1.4819760000
C                 -1.3044780000      4.0724990000     -2.0879800000
C                 -0.9542490000      3.0668940000     -1.1280590000
C                 -1.3900550000      5.4529640000     -1.6544850000
C                 -1.1538270000      5.7629050000     -0.2934870000
C                 -0.8306040000      4.7504160000      0.6113610000
C                 -0.7243530000      3.4302300000      0.2107720000
O                 -1.9432310000      4.5350400000     -4.3654730000
O                 -0.5146010000      0.7686410000     -0.6328460000
N                 -1.6842840000      6.4352680000     -2.5504280000
H                 -2.0161600000      2.6608050000     -5.8556850000
H                 -1.8418290000      0.2767710000     -6.5689490000
H                 -1.1913450000     -1.4647630000     -4.8897710000
H                 -0.7295240000     -0.7825770000     -2.5343120000
S                 -1.1560820000      7.4807350000      0.3335220000
H                 -0.6729920000      5.0323580000      1.6461250000
H                 -1.9637990000      6.1097500000     -3.4709200000
H                 -1.9827060000      7.3238150000     -2.1599170000
H                 -0.4701070000      2.6450440000      0.9114890000
O                 -2.2464680000      8.1800760000     -0.4252920000
O                 -1.4368930000      7.3663240000      1.7908240000
O                  0.1921250000      8.0357980000      0.0334180000
$end
$rem
   MAX_SCF_CYCLES=200
   BASIS  =  6-311++G(d,p)
   GUI  =  2
   JOB_TYPE  =  SP
   METHOD  =  B3LYP
   SOLVENT_METHOD = COSMO
$end
$solvent
   dielectric 37.219
   opticaldielectric 1.43
$end





