%chk=302-rad.chk
%nproc=8
%mem=30GB
#P UB3LYP/6-311++G(d,p) nosym  opt freq SCRF=(PCM,Solvent=n,n-DiMethylFormamide)

Radical

-1 2
C                 -1.8809450000      4.5421360000      5.2842050000
C                 -3.1511370000      4.0084250000      5.3966950000
C                 -3.6182170000      3.0943610000      4.4318820000
C                 -1.0397510000      4.1783480000      4.2111850000
C                 -1.5064710000      3.2560200000      3.2365890000
C                 -2.8042570000      2.7318200000      3.3708400000
C                  0.2857490000      4.7396700000      4.0805150000
C                  1.0737960000      4.2840120000      2.9597420000
C                  0.6763800000      3.3512300000      2.0126340000
C                 -0.6750120000      2.8338340000      2.0820310000
O                  0.8030450000      5.5964460000      4.8673550000
O                 -1.1774890000      2.0655970000      1.2172300000
O                  2.2992900000      4.8691110000      2.8947820000
H                 -1.4980810000      5.2503580000      6.0101890000
H                 -3.7898670000      4.2940330000      6.2273330000
H                 -4.6161510000      2.6755350000      4.5197130000
H                 -3.1407890000      2.0342680000      2.6128670000
H                  2.2884780000      5.4607890000      3.6804890000
C                  2.9674430000      2.3759320000      1.3596460000
C                  3.0281550000      1.5833290000      2.5066030000
C                  4.1300530000      2.5279000000      0.5959610000
C                  5.3192000000      1.9029190000      0.9629840000
C                  5.3670300000      1.1094780000      2.1101970000
C                  4.2159900000      0.9542500000      2.8801550000
H                  2.1393160000      1.4693590000      3.1163950000
H                  4.0922000000      3.1412120000     -0.2985720000
H                  6.2106440000      2.0387890000      0.3583090000
H                  4.2414990000      0.3453770000      3.7783590000
H                  6.2928200000      0.6248220000      2.4033710000
C                  1.6777610000      3.0510600000      0.8831920000
H                  1.9937360000      4.0372950000      0.5201510000
N                  1.1667880000      2.3448740000     -0.3180950000
C                  1.1065680000      0.8793470000     -0.2453940000
C                  0.3829210000      0.3288080000     -1.4739930000
C                  0.3239160000     -1.2021230000     -1.4992350000
C                 -0.4100500000     -1.7676340000     -2.7205820000
C                 -0.4732580000     -3.2990790000     -2.7484740000
C                 -1.2081320000     -3.8655050000     -3.9688290000
C                 -1.2715030000     -5.3969660000     -3.9956730000
C                 -2.0059850000     -5.9632950000     -5.2162690000
C                 -2.0688440000     -7.4947860000     -5.2425690000
C                 -2.8023820000     -8.0613090000     -6.4633630000
C                 -2.8657780000     -9.5927260000     -6.4901360000
C                 -3.6002520000    -10.1490110000     -7.7137470000
H                  0.2079970000      2.6576450000     -0.4413710000
H                  0.5841390000      0.5289760000      0.6551090000
H                  2.1280130000      0.4865390000     -0.2198100000
H                  0.8827730000      0.6986420000     -2.3782310000
H                 -0.6379530000      0.7299920000     -1.4868840000
H                 -0.1689840000     -1.5587310000     -0.5861090000
H                  1.3446640000     -1.6070950000     -1.4735900000
H                  0.0803720000     -1.4097020000     -3.6357980000
H                 -1.4303830000     -1.3634790000     -2.7455680000
H                 -0.9640190000     -3.6560480000     -1.8336160000
H                  0.5473060000     -3.7036880000     -2.7217390000
H                 -0.7177060000     -3.5082840000     -4.8840960000
H                 -2.2285680000     -3.4613040000     -3.9951600000
H                 -1.7625220000     -5.7539290000     -3.0809250000
H                 -0.2510430000     -5.8013680000     -3.9685090000
H                 -1.5151460000     -5.6061760000     -6.1311930000
H                 -3.0264740000     -5.5593420000     -5.2432040000
H                 -2.5603640000     -7.8517820000     -4.3280890000
H                 -1.0483150000     -7.8988200000     -5.2148600000
H                 -2.3112300000     -7.7051890000     -7.3786420000
H                 -3.8232930000     -7.6580870000     -6.4917730000
H                 -3.3574110000     -9.9489510000     -5.5765440000
H                 -1.8460480000     -9.9961370000     -6.4622440000
H                 -4.6342310000     -9.7910710000     -7.7504770000
H                 -3.6278580000    -11.2425860000     -7.7025840000
H                 -3.1115670000     -9.8385570000     -8.6429790000


