$molecule
-2 1
C                  3.8827580000      0.6176390000      0.0056110000
O                  2.6921660000      1.2485270000     -0.3978250000
C                  1.4968960000      0.5473360000     -0.2489370000
C                  1.4768040000     -0.8500900000     -0.1464000000
C                  0.2905000000     -1.6304550000     -0.0323060000
O                  0.2973320000     -2.9137350000      0.0661380000
C                 -0.9399450000     -0.8469520000     -0.0291550000
C                 -2.1889880000     -1.4943200000      0.0860500000
C                 -3.3845520000     -0.7958440000      0.0910600000
C                 -3.3633190000      0.6192280000     -0.0258310000
C                 -2.1545710000      1.2809570000     -0.1376270000
C                 -0.9149210000      0.5947520000     -0.1414790000
C                  0.3166890000      1.3657040000     -0.2535730000
O                  0.3281130000      2.6440120000     -0.3568810000
H                  3.8139580000      0.2201870000      1.0320860000
H                  4.6768570000      1.3707280000     -0.0276940000
H                  4.1697140000     -0.2091380000     -0.6587040000
H                  2.4065340000     -1.4097560000     -0.1416950000
H                 -2.1653720000     -2.5770020000      0.1717500000
H                 -4.3321110000     -1.3247540000      0.1815420000
H                 -4.2966870000      1.1808480000     -0.0279850000
H                 -2.1078520000      2.3621290000     -0.2282390000
$end

$rem
   BASIS  =  6-311++G(d,p)
   GUI  =  2
   JOB_TYPE  =  SP
   METHOD  =  B3LYP
   SCF_CONVERGENCE  = 8
   SOLVENT_METHOD = sm12
$end

$smx
   solvent dimethylformamide
   charges CM5
$end





