%chk=220-rad.chk
%nproc=8
%mem=30GB
#P UB3LYP/6-311++G(d,p) nosym opt freq

Radical

-1 2
C                  4.9790560000     -2.7055140000      0.0117400000
C                  5.6972770000     -1.7544470000     -0.6853680000
C                  5.0608370000     -0.6697760000     -1.3313900000
C                  3.5786230000     -2.6020260000      0.0977180000
C                  2.9178070000     -1.5157880000     -0.5444800000
C                  3.6910750000     -0.5682060000     -1.2556180000
C                  2.8436000000     -3.6216000000      0.8585510000
C                  1.3845990000     -3.4544260000      0.9034950000
C                  0.7283370000     -2.3663580000      0.2597290000
C                  1.4657420000     -1.3505280000     -0.4906340000
C                  0.6202080000     -4.3990800000      1.6124640000
C                 -0.6799980000     -2.2663210000      0.3499590000
C                 -1.4226750000     -3.1886120000      1.0500610000
O                  3.4211960000     -4.5615880000      1.4369410000
O                  0.8859310000     -0.3910850000     -1.0544520000
H                  5.4653230000     -3.5437570000      0.4948450000
H                 -2.5011030000     -3.1152490000      1.1109060000
H                  3.1623080000      0.2426820000     -1.7418120000
H                  1.1326610000     -5.2272820000      2.0857180000
H                 -1.1541070000     -1.4341710000     -0.1562690000
C                 -0.7516400000     -4.2599750000      1.6831540000
S                  7.4732560000     -1.8607700000     -0.7302140000
S                 -1.6992420000     -5.4245760000      2.6387560000
O                 -0.8952680000     -6.6290330000      2.8641390000
O                 -3.0585570000     -5.5377570000      2.1009600000
N                 -1.9112170000     -4.5943150000      4.1213670000
H                 -1.1143830000     -4.7662180000      4.7288850000
H                 -2.7629720000     -4.9451310000      4.5519860000
O                  7.8835500000     -3.2177820000     -0.3586600000
O                  7.9891580000     -1.2467030000     -1.9576250000
N                  7.9362060000     -0.7667280000      0.5031120000
H                  5.6502040000      0.0514950000     -1.8832130000
H                  8.8671800000     -0.4249690000      0.2784360000
H                  7.9447590000     -1.2438340000      1.4008120000


