%chk=275.chk
%nproc=8
%mem=30GB
#P UB3LYP/6-311++G(d,p) nosym opt freq

Oxidized

0 1
C                  0.2974440000     -0.5356500000     -0.1346660000
C                 -0.2663230000     -1.7047920000     -0.5311980000
C                 -1.7171770000     -1.8921660000     -0.5539060000
O                 -2.2125110000     -2.9525220000     -0.9118760000
C                 -2.5898050000     -0.7492700000     -0.1257810000
C                 -3.9764050000     -0.8916970000     -0.1341460000
C                 -4.7885760000      0.1678360000      0.2630270000
C                 -4.2209920000      1.3770790000      0.6730880000
C                 -2.8386790000      1.5282210000      0.6846460000
C                 -2.0196400000      0.4667360000      0.2868250000
C                 -0.5505960000      0.6312470000      0.3008430000
O                 -0.0038140000      1.6690430000      0.6514820000
H                  0.3408430000     -2.5415180000     -0.8434870000
H                 -4.3964600000     -1.8373450000     -0.4540050000
H                 -5.8665890000      0.0526490000      0.2549880000
H                 -4.8572600000      2.1987220000      0.9811340000
H                 -2.3772240000      2.4567530000      0.9994900000
N                  1.6367500000     -0.2269970000     -0.0661110000
C                  2.7213840000     -1.0544250000     -0.3812060000
N                  3.9313760000     -0.4411540000     -0.1909050000
C                  5.1893070000     -1.1092990000     -0.4896280000
O                  2.5913210000     -2.1979870000     -0.7779840000
H                  1.7973210000      0.7179040000      0.2711870000
H                  3.9607800000      0.5229690000      0.0993230000
H                  4.9623100000     -2.1526840000     -0.7230950000
H                  5.8613680000     -1.0721170000      0.3785260000
H                  5.6889920000     -0.6506820000     -1.3556510000





