%chk=346.chk
%nproc=8
%mem=30GB
#P UB3LYP/6-311++G(d,p) nosym opt freq SCRF=(PCM,Solvent=n,n-DiMethylFormamide)

Oxidized

0 1
O                 -0.1318410000      0.0728710000      2.2362150000
C                 -0.4905000000      0.3568560000      1.1082430000
C                 -1.8341810000      0.0138350000      0.5718600000
C                 -2.7286760000     -0.6655840000      1.4130200000
C                 -3.9825610000     -1.0368410000      0.9471990000
C                 -4.3557680000     -0.7375410000     -0.3653900000
C                 -3.4722810000     -0.0655930000     -1.2082750000
C                 -2.2151760000      0.3116950000     -0.7439810000
C                  0.4833620000      1.1800340000      0.2385430000
O                  0.1206260000      2.2868500000     -0.1149970000
C                  1.8312590000      0.6307720000     -0.0652010000
C                  2.7241500000      1.4330120000     -0.7921560000
C                  3.9818870000      0.9518520000     -1.1292030000
C                  4.3606690000     -0.3376190000     -0.7476590000
C                  3.4789430000     -1.1419000000     -0.0277890000
C                  2.2179430000     -0.6619110000      0.3153280000
H                 -2.4187080000     -0.8900960000      2.4264400000
H                 -4.6713180000     -1.5586790000      1.6016850000
H                 -5.3352770000     -1.0277740000     -0.7289580000
H                 -3.7639420000      0.1696890000     -2.2252500000
H                 -1.5415640000      0.8496880000     -1.3981610000
H                  2.4098530000      2.4288570000     -1.0802850000
H                  4.6693060000      1.5764030000     -1.6881660000
H                  5.3431640000     -0.7132220000     -1.0112460000
H                  3.7749520000     -2.1406810000      0.2713160000
H                  1.5456790000     -1.2849720000      0.8906530000


