$molecule
-1 2
C                 -1.2160590000      2.8516290000      0.0180900000
C                 -2.5012300000      2.3503070000      0.0165190000
C                 -2.7335720000      0.9630670000      0.0150150000
C                 -0.1039200000      1.9824140000      0.0182230000
C                 -0.3276150000      0.5796980000      0.0167090000
C                 -1.6503700000      0.1026540000      0.0151310000
C                  1.2426170000      2.5622400000      0.0199260000
C                  2.3236540000      1.5927330000      0.0199110000
C                  2.1113030000      0.2274670000      0.0184490000
C                  0.8011950000     -0.3656660000      0.0167700000
O                  1.4374270000      3.8075680000      0.0212080000
O                  0.6277920000     -1.6123550000      0.0154910000
H                 -1.0183570000      3.9202990000      0.0192670000
H                 -1.7921740000     -0.9723660000      0.0139940000
O                  3.5726410000      2.1627170000      0.0214890000
O                 -3.6148940000      3.1769170000      0.0163460000
H                 -3.7538730000      0.5958620000      0.0137970000
H                  2.9363850000     -0.4740110000      0.0184930000
C                  4.6940310000      1.3083840000      0.0214990000
H                 -3.3036680000      4.0878460000      0.0174640000
H                  5.5691170000      1.9606840000      0.0227880000
H                  4.7215540000      0.6683940000     -0.8700120000
H                  4.7202240000      0.6666640000      0.9118060000
$end
$rem
   MAX_SCF_CYCLES=200
   BASIS  =  6-311++G(d,p)
   GUI  =  2
   JOB_TYPE  =  SP
   METHOD  =  B3LYP
   SOLVENT_METHOD = PCM
$end
$pcm
   theory = CPCM
$end
$solvent
   dielectric 37.219
   opticaldielectric 1.43
$end






