%chk=185-an.chk
%nproc=8
%mem=30GB
#P UB3LYP/6-311++G(d,p) nosym opt freq

Reduced

-2 1
C                  4.8792630000     -2.8690100000     -0.3502630000
C                  5.6029090000     -1.9806710000     -1.1148190000
C                  4.9993170000     -0.7588500000     -1.5415800000
C                  3.5351450000     -2.6145210000      0.0369830000
C                  2.9209450000     -1.3711820000     -0.3972710000
C                  3.6986040000     -0.4789440000     -1.1850490000
C                  2.8223200000     -3.5635160000      0.8302670000
C                  1.4715040000     -3.2305370000      1.1770030000
C                  0.8611050000     -1.9948050000      0.7453900000
C                  1.5761750000     -1.0406600000     -0.0507540000
C                  0.6984380000     -4.1488820000      1.9766310000
C                 -0.6016010000     -3.8444300000      2.3192960000
C                 -0.5019920000     -1.7184660000      1.1277700000
C                 -1.2040450000     -2.6247770000      1.8933010000
O                  3.3711820000     -4.6951970000      1.2290580000
O                  1.0095820000      0.0856470000     -0.4404980000
O                  1.2750020000     -5.3163780000      2.3842710000
H                  5.3134080000     -3.8048080000     -0.0124000000
H                  6.6306660000     -2.2067250000     -1.3938430000
H                  5.5668670000     -0.0532560000     -2.1459530000
H                  3.2155080000      0.4421940000     -1.4956390000
H                  2.2312920000     -5.2595000000      1.9797240000
O                 -1.0783490000     -0.5511090000      0.7199040000
H                 -2.2298330000     -2.3913030000      2.1673410000
H                 -1.1613510000     -4.5545800000      2.9228010000
H                 -0.3197710000     -0.0927230000      0.1748900000


