$molecule
0 1
N                 -2.5914940000     -2.2768770000      0.4320780000
C                 -2.3339640000     -0.9668800000      0.1610720000
C                 -3.4252490000     -0.0877560000     -0.0322350000
C                 -3.2276540000      1.2454050000     -0.2810160000
C                 -1.9348190000      1.7981520000     -0.3524600000
O                 -1.7898880000      3.1275410000     -0.5966720000
C                 -0.8211970000      0.9673160000     -0.1730040000
C                  0.5558870000      1.5366320000     -0.2484890000
O                  0.7699010000      2.7217590000     -0.4449220000
C                  1.7044970000      0.5980330000     -0.0740590000
C                  3.0071060000      1.1039850000     -0.1500190000
C                  4.0950940000      0.2557860000      0.0064080000
C                  3.8929910000     -1.1085790000      0.2414580000
C                  2.6040040000     -1.6176460000      0.3188540000
C                  1.5023030000     -0.7670190000      0.1614160000
C                  0.1318610000     -1.3325680000      0.2512750000
O                 -0.0035950000     -2.5444500000      0.4626130000
C                 -1.0191410000     -0.4313430000      0.0822120000
H                 -3.5331980000     -2.6215210000      0.3594180000
H                 -1.8060340000     -2.9128360000      0.4938110000
H                 -4.4342790000     -0.4826730000      0.0231430000
H                 -4.0860620000      1.8960310000     -0.4248440000
H                 -2.6631770000      3.5230710000     -0.6943820000
H                  3.1371520000      2.1632750000     -0.3325870000
H                  5.1026480000      0.6518410000     -0.0536440000
H                  4.7437740000     -1.7694800000      0.3636810000
H                  2.4225310000     -2.6691990000      0.5008940000
$end
$rem
   MAX_SCF_CYCLES=200
   BASIS  =  6-311++G(d,p)
   GUI  =  2
   JOB_TYPE  =  SP
   METHOD  =  B3LYP
   SOLVENT_METHOD = COSMO
$end
$solvent
   dielectric 37.219
   opticaldielectric 1.43
$end





