$molecule
-1 2
C                 -4.6719690000      0.2882570000     -0.0832530000
C                 -3.2078340000     -0.0797270000     -0.0289460000
C                 -2.8304750000     -1.4379350000     -0.0618450000
C                 -1.4956010000     -1.8092540000     -0.0140060000
O                 -1.1819560000     -3.1237890000     -0.0481880000
C                 -0.4700470000     -0.8144190000      0.0701280000
C                  0.9168040000     -1.1970500000      0.1198140000
O                  1.2609670000     -2.4534780000      0.0891680000
C                  1.9172220000     -0.1629160000      0.2040920000
C                  3.3059750000     -0.5031890000      0.2552020000
O                  3.7050030000     -1.7945440000      0.2257740000
C                  4.2689250000      0.4941880000      0.3362010000
C                  3.8832210000      1.8441130000      0.3684670000
C                  2.5480270000      2.2022410000      0.3205580000
C                  1.5479800000      1.2149910000      0.2381790000
C                  0.1392960000      1.6258330000      0.1887570000
O                 -0.1926240000      2.8327370000      0.2183910000
C                 -0.8601380000      0.5550630000      0.1029360000
C                 -2.2262800000      0.8940190000      0.0525050000
H                 -5.1423630000     -0.0809140000     -1.0021820000
H                 -5.2246560000     -0.1484680000      0.7568490000
H                 -4.8068410000      1.3717250000     -0.0480070000
H                 -3.5773750000     -2.2230570000     -0.1254010000
H                 -0.1844020000     -3.1616070000     -0.0035460000
H                  2.8648130000     -2.3324900000      0.1673460000
H                  5.3125110000      0.2023590000      0.3732330000
H                  4.6484370000      2.6122270000      0.4319280000
H                  2.2334340000      3.2379440000      0.3444610000
H                 -2.4800570000      1.9471380000      0.0798770000
$end
$rem
   MAX_SCF_CYCLES=200
   BASIS  =  6-311++G(d,p)
   GUI  =  2
   JOB_TYPE  =  SP
   METHOD  =  B3LYP
   SOLVENT_METHOD = PCM
$end
$pcm
   theory = CPCM
$end
$solvent
   dielectric 37.219
   opticaldielectric 1.43
$end






