%chk=301-an-PCM.chk
%nproc=8
%mem=30GB
#P UB3LYP/6-311++G(d,p) SCRF=(PCM,Solvent=n,n-DiMethylFormamide)

Reduced 

-2 1
C                 -0.6845450000      2.7235260000      0.6576560000
C                 -1.6778600000      2.5763950000     -0.2953660000
C                 -1.4485110000      1.8027710000     -1.4508990000
C                  0.5824870000      2.1060560000      0.5018900000
C                  0.8131140000      1.3222270000     -0.6701490000
C                 -0.2083230000      1.1901180000     -1.6174180000
C                  1.6066630000      2.2700450000      1.5055900000
C                  2.8246200000      1.6268240000      1.2703590000
C                  3.1556760000      0.8170500000      0.1240360000
C                  2.1179200000      0.6356750000     -0.9172950000
O                  1.4499290000      2.9756190000      2.5978640000
O                  2.2715510000     -0.0358110000     -1.9516110000
O                  3.7472990000      1.8297580000      2.2680480000
H                 -0.8364220000      3.3135490000      1.5552060000
H                 -2.6421600000      3.0614880000     -0.1511070000
H                 -2.2272430000      1.6859110000     -2.2006490000
H                  0.0080640000      0.5862250000     -2.4930260000
H                  3.2106860000      2.4039010000      2.8668340000
N                  4.3981850000      0.2980060000      0.1166570000
N                  4.8132800000     -0.4529090000     -0.8726550000
C                  6.1133170000     -0.8890590000     -0.6968840000
C                  6.9585220000     -0.5926010000      0.4119420000
C                  6.6604830000     -1.7109180000     -1.7170290000
C                  7.9564210000     -2.2033000000     -1.6404220000
C                  8.7779330000     -1.9036190000     -0.5429600000
C                  8.2516310000     -1.0920470000      0.4744500000
H                  6.5523950000      0.0334890000      1.1966200000
H                  6.0211400000     -1.9398920000     -2.5638470000
H                  8.3373200000     -2.8302080000     -2.4446330000
H                  9.7920610000     -2.2884230000     -0.4820800000
H                  8.8719690000     -0.8469160000      1.3355240000





