%chk=244.chk
%nproc=8
%mem=30GB
#P UB3LYP/6-311++G(d,p) nosym opt freq

Oxidized

0 1
C                  5.7475930000     -5.3316730000      1.2334350000
C                  6.6911730000     -5.1696530000      0.2102800000
C                  6.5966150000     -4.1527700000     -0.7339160000
C                  4.6685810000     -4.4156380000      1.2874660000
C                  4.5801640000     -3.3857770000      0.3245300000
C                  5.5376660000     -3.2560350000     -0.6785210000
C                  3.6164800000     -4.5120680000      2.3427760000
C                  2.4946100000     -3.5086760000      2.3477520000
C                  2.4484400000     -2.5442020000      1.4125210000
C                  3.4556610000     -2.4021710000      0.3512760000
O                  3.6368000000     -5.3789720000      3.2040160000
O                  3.3658370000     -1.5053690000     -0.4750000000
C                  5.9468860000     -6.4690710000      2.2045310000
H                  7.5215980000     -5.8656020000      0.1594670000
C                  1.4545010000     -3.6392500000      3.4277470000
H                  1.6505930000     -1.8078060000      1.3929570000
H                  5.4312340000     -2.4522790000     -1.3960420000
H                  7.3488190000     -4.0630580000     -1.5095590000
H                  6.8506590000     -7.0231820000      1.9433800000
H                  5.0981220000     -7.1555930000      2.2013410000
H                  6.0362230000     -6.1112320000      3.2319980000
H                  1.6766840000     -4.4840060000      4.0768960000
H                  0.4629350000     -3.7838140000      2.9901150000
H                  1.4157640000     -2.7306900000      4.0349530000


