%chk=241-an.chk
%nproc=8
%mem=30GB
#P UB3LYP/6-311++G(d,p) nosym opt freq SCF=YQC

Reduced

-2 1
C                 -2.4002390000      1.9063900000     -0.0182590000
C                 -1.2417490000      0.9358440000     -0.0027820000
C                 -1.4805020000     -0.4565350000      0.1322240000
C                 -2.8938240000     -0.9741130000      0.2696710000
C                 -0.4374920000     -1.4328160000      0.1461220000
O                 -0.6499580000     -2.7053730000      0.2665030000
C                  0.9080700000     -0.8890450000      0.0199730000
C                  2.0226580000     -1.7609660000      0.0393190000
C                  3.3215540000     -1.3007090000     -0.0869230000
C                  3.5590160000      0.0890870000     -0.2396770000
C                  2.4890220000      0.9664880000     -0.2534960000
C                  1.1507700000      0.5264900000     -0.1177280000
C                  0.0655720000      1.4982730000     -0.1284970000
O                  0.2893790000      2.7688010000     -0.2496460000
H                 -3.1294450000      1.6797950000     -0.8125800000
H                 -2.9678490000      1.9055350000      0.9272790000
H                 -2.0005690000      2.9106040000     -0.1802510000
H                 -2.8475090000     -2.0567140000      0.4120210000
H                 -3.5108750000     -0.7660090000     -0.6204060000
H                 -3.4264450000     -0.5240540000      1.1227350000
H                  1.8062900000     -2.8185880000      0.1567800000
H                  4.1589620000     -1.9979390000     -0.0724220000
H                  4.5788300000      0.4592790000     -0.3422850000
H                  2.6363310000      2.0362730000     -0.3676760000


