$molecule
0 1
C                  0.0805730000      1.8262940000     -2.1014110000
C                 -1.3630410000      1.8894910000     -1.7620660000
C                 -2.0704220000      0.7856540000     -1.4900340000
C                 -1.4379250000     -0.5565930000     -1.5203250000
C                  0.0011540000     -0.6260160000     -1.8742530000
C                  0.7247190000      0.4761720000     -2.1278400000
O                  0.7113500000      2.8358310000     -2.3619320000
O                 -2.0749820000     -1.5642160000     -1.2620920000
C                  3.2377370000      0.8373100000     -1.6081940000
C                  4.5619150000      0.8955960000     -2.0665720000
C                  2.9520350000      1.1817490000     -0.2814030000
C                  3.9743760000      1.5771240000      0.5763640000
C                  5.5791830000      1.2975000000     -1.2115010000
C                  5.2868970000      1.6377840000      0.1114320000
H                 -1.7990770000      2.8824960000     -1.7564320000
H                 -3.1256500000      0.8109130000     -1.2415440000
H                  0.4327180000     -1.6207680000     -1.9110720000
H                  4.7679130000      0.6248200000     -3.0947700000
H                  1.9345330000      1.1335130000      0.0883660000
H                  3.7481000000      1.8385280000      1.6034820000
H                  6.6004550000      1.3473510000     -1.5711920000
H                  6.0826390000      1.9503240000      0.7783040000
C                  2.1803350000      0.3839490000     -2.5499750000
O                  2.4299850000     -0.0799070000     -3.6451790000
$end

$rem
   BASIS  =  6-311++G(d,p)
   GUI  =  2
   JOB_TYPE  =  SP
   METHOD  =  B3LYP
   SCF_CONVERGENCE  = 8
   SOLVENT_METHOD = sm12
$end

$smx
   solvent dimethylformamide
   charges CM5
$end





