%chk=012.chk
%nproc=8
%mem=30GB
#P UB3LYP/6-311++G(d,p) nosym opt freq

Oxidized

0 1
Br   -2.7627459209   -1.8401560967   -0.0970023302
C    -1.2012822404   -0.7254808250   -0.0413891876
C    -1.2863324985    0.5903479227   -0.0299046054
C    -0.1290282401    1.4765803322    0.0119470071
O    -0.2912255533    2.7230159573    0.0205272429
C     1.1960928181    0.8506640608    0.0425674306
C     1.3026173201   -0.4566470450    0.0317756129
Br    3.0183551088   -1.2419832279    0.0716802819
C     0.1299907700   -1.3189955053   -0.0102573538
O     0.2610644597   -2.5776685749   -0.0198539088
H    -2.2956830871    1.0031731067   -0.0539033037
H     2.0581770637    1.5171498951    0.0738131140


