$molecule
-1 2
C                  2.1492100000      3.8069790000      5.5284840000
C                  3.0460600000      3.1849580000      4.5880320000
C                  2.6180960000      2.2918570000      3.6425020000
C                  1.2262000000      1.9125630000      3.5270820000
C                  0.3275150000      2.5486920000      4.4722080000
C                  0.7383190000      3.4485550000      5.4233110000
O                  2.5694130000      4.6252410000      6.4147070000
O                  0.8160220000      1.0875000000      2.6613580000
C                 -0.2180450000      4.1712740000      6.3664000000
C                 -1.6315560000      3.6067010000      6.4271890000
O                  0.2838340000      4.1905330000      7.7075520000
H                  4.0941450000      3.4593940000      4.6713630000
H                  3.3123580000      1.8318430000      2.9447740000
H                 -0.7165980000      2.2689020000      4.3771500000
H                 -0.2849100000      5.2151650000      6.0109560000
H                 -2.1376290000      3.6812950000      5.4614400000
H                 -2.2056630000      4.1736620000      7.1649850000
H                 -1.6151230000      2.5578130000      6.7356150000
H                  1.2201160000      4.4622640000      7.5939030000
$end
$rem
   MAX_SCF_CYCLES=200
   BASIS  =  6-311++G(d,p)
   GUI  =  2
   JOB_TYPE  =  SP
   METHOD  =  B3LYP
   SOLVENT_METHOD = PCM
$end
$pcm
   theory = CPCM
$end
$solvent
   dielectric 37.219
   opticaldielectric 1.43
$end





