$molecule
-2 1
Cl                 3.0198890000     -0.8316570000     -0.1891180000
C                  1.2666440000     -0.3598540000     -0.0796520000
C                  0.9936200000      1.0062100000     -0.0238690000
C                 -0.3425240000      1.5151640000      0.0640420000
O                 -0.6288020000      2.7810680000      0.1175610000
C                 -1.3286730000      0.4765080000      0.0865380000
C                 -0.9877510000     -0.8740660000      0.0275050000
Cl                -2.3666390000     -2.0597870000      0.0669860000
C                  0.3264510000     -1.4449650000     -0.0611510000
O                  0.6091710000     -2.6947430000     -0.1139420000
H                  1.8115410000      1.7198450000     -0.0469450000
H                 -2.3729260000      0.7662780000      0.1520460000
$end

$rem
   BASIS  =  6-311++G(d,p)
   GUI  =  2
   JOB_TYPE  =  SP
   METHOD  =  B3LYP
   SCF_CONVERGENCE  = 8
   SOLVENT_METHOD = sm12
$end

$smx
   solvent dimethylformamide
   charges CM5
$end





