$molecule
-1 2
C                 -1.2985340000      2.0646340000      0.5692380000
C                 -2.5504270000      1.4009070000      0.2232120000
C                 -2.6550200000      0.1466770000     -0.3028850000
C                 -1.4800470000     -0.6605380000     -0.5712660000
C                 -0.2117570000     -0.0421830000     -0.2431090000
C                 -0.1448840000      1.2151180000      0.2820970000
O                 -1.5591560000     -1.8203710000     -1.0566840000
H                 -3.6181330000     -0.2889760000     -0.5380150000
O                 -1.2164000000      3.2124080000      1.0497320000
Cl                 1.4417950000      1.9062390000      0.6582750000
Br                -4.1638010000      2.4159920000      0.5530400000
H                  0.6866760000     -0.6175380000     -0.4309650000
$end
$rem
   MAX_SCF_CYCLES=200
   BASIS  =  6-311++G(d,p)
   GUI  =  2
   JOB_TYPE  =  SP
   METHOD  =  B3LYP
   SOLVENT_METHOD = PCM
$end
$pcm
   theory = CPCM
$end
$solvent
   dielectric 37.219
   opticaldielectric 1.43
$end





