$molecule
-1 2
C                 -4.7643580000     -0.2443920000     -0.5027840000
C                 -3.9689000000     -0.4921960000      0.7917440000
C                 -2.5445040000      0.0150710000      0.7278290000
C                 -2.2690400000      1.3971280000      0.8896690000
C                 -0.9782240000      1.8740770000      0.8016090000
C                  0.1090300000      1.0092880000      0.5478990000
C                  1.4616290000      1.5611910000      0.4633330000
O                  1.6910310000      2.7885610000      0.6057530000
C                  2.5326440000      0.5966400000      0.2026730000
C                  3.8650940000      1.0553650000      0.1070910000
C                  4.9075920000      0.1838930000     -0.1370150000
C                  4.6484920000     -1.1959400000     -0.2961510000
C                  3.3544280000     -1.6680140000     -0.2068390000
C                  2.2708790000     -0.7961600000      0.0421870000
C                  0.9167570000     -1.3462500000      0.1283870000
O                  0.6867820000     -2.5745500000     -0.0125240000
C                 -0.1530690000     -0.3815550000      0.3873910000
C                 -1.4858870000     -0.8405880000      0.4844700000
H                 -4.2898410000     -0.7496390000     -1.3486710000
H                 -5.7923390000     -0.6144370000     -0.4151760000
H                 -4.8073180000      0.8229520000     -0.7387180000
H                 -4.4934220000     -0.0114310000      1.6275660000
H                 -3.9597340000     -1.5659540000      1.0059670000
H                 -3.0867560000      2.0849610000      1.0922510000
H                 -0.7565000000      2.9276600000      0.9288370000
H                  4.0338210000      2.1187500000      0.2334560000
H                  5.9253970000      0.5565660000     -0.2069660000
H                  5.4675400000     -1.8830060000     -0.4882470000
H                  3.1266040000     -2.7212990000     -0.3245080000
H                 -1.6478270000     -1.9066930000      0.3611890000
$end
$rem
   MAX_SCF_CYCLES=200
   BASIS  =  6-311++G(d,p)
   GUI  =  2
   JOB_TYPE  =  SP
   METHOD  =  B3LYP
   SOLVENT_METHOD = COSMO
$end
$solvent
   dielectric 37.219
   opticaldielectric 1.43
$end





