%chk=197-rad-PCM.chk
%nproc=8
%mem=30GB
#P UB3LYP/6-311++G(d,p) SCRF=(PCM,Solvent=n,n-DiMethylFormamide)

Radical PCM in DMF 

-1 2
C                 -4.0127750000     -1.0154600000      0.2448240000
C                 -2.6318800000     -0.4069570000      0.2506500000
C                 -2.4618100000      0.9859470000      0.4234900000
C                 -3.6584280000      1.8873140000      0.6047720000
C                 -1.1773990000      1.5382140000      0.4275190000
O                 -1.0342710000      2.8775240000      0.5951240000
C                 -0.0284420000      0.7174700000      0.2590200000
C                  1.2894280000      1.3160820000      0.2670590000
O                  1.4524520000      2.5758220000      0.4231420000
C                  2.4314280000      0.4349040000      0.0907060000
C                  3.7387720000      0.9699190000      0.0910310000
C                  4.8407130000      0.1555970000     -0.0745060000
C                  4.6707000000     -1.2364980000     -0.2478710000
C                  3.4027380000     -1.7815220000     -0.2515590000
C                  2.2600870000     -0.9681030000     -0.0839280000
C                  0.9370610000     -1.5691450000     -0.0918320000
O                  0.7921080000     -2.8309470000     -0.2490920000
C                 -0.2004920000     -0.6914870000      0.0838870000
C                 -1.5157060000     -1.2321420000      0.0834250000
O                 -1.6992140000     -2.5669240000     -0.0810000000
H                 -3.9529930000     -2.0930780000      0.1011750000
H                 -4.6339420000     -0.5959590000     -0.5559170000
H                 -4.5412140000     -0.8229380000      1.1864650000
H                 -4.2435550000      1.6062810000      1.4889090000
H                 -3.3410130000      2.9223420000      0.7206540000
H                 -4.3386910000      1.8303430000     -0.2536970000
H                 -0.0388230000      3.0355640000      0.5625180000
H                  3.8418330000      2.0401170000      0.2257980000
H                  5.8388220000      0.5830470000     -0.0717630000
H                  5.5385050000     -1.8759670000     -0.3780110000
H                  3.2451280000     -2.8455300000     -0.3825530000
H                 -0.7691260000     -2.9438320000     -0.1799910000





