$molecule
-1 2
C                 -2.8513680000      3.9619570000      0.4908780000
C                 -4.1315660000      3.4670770000      0.6250900000
C                 -4.3220160000      2.0745840000      0.5698810000
C                 -1.7423700000      3.1072860000      0.3062140000
C                 -1.9604300000      1.7002900000      0.2561460000
C                 -3.2759410000      1.2056790000      0.3938190000
C                 -0.4058550000      3.6888630000      0.1780050000
C                  0.6902000000      2.7361540000     -0.0042100000
C                  0.4721540000      1.3291670000     -0.0542790000
C                 -0.8643520000      0.7475740000      0.0739060000
C                  2.0057420000      3.2307930000     -0.1419040000
C                  3.0517540000      2.3618710000     -0.3179660000
C                  2.8613250000      0.9693650000     -0.3731500000
C                  1.5811560000      0.4744600000     -0.2389320000
O                 -0.2087990000      4.9280000000      0.2220860000
O                 -1.0614170000     -0.4915480000      0.0297880000
H                 -3.4310540000      0.1341820000      0.3660900000
H                  1.3886560000     -0.5913380000     -0.2736040000
H                 -2.6589170000      5.0277640000      0.5255670000
H                  2.1608080000      4.3022950000     -0.1141890000
H                  3.7085670000      0.3086230000     -0.5104420000
O                 -5.6044570000      1.5209910000      0.8053310000
O                  4.3343710000      2.9151920000     -0.5534490000
C                  5.3536210000      2.6766330000      0.3042790000
C                  6.5957150000      3.4003970000     -0.1647990000
O                  5.2837810000      1.9966830000      1.2957720000
H                 -4.9787470000      4.1278870000      0.7623610000
H                  6.4197620000      4.4788310000     -0.1452980000
H                  6.8262340000      3.1253400000     -1.1962820000
H                  7.4302830000      3.1507380000      0.4877310000
C                 -6.6245790000      1.7611610000     -0.0508900000
C                 -7.8661800000      1.0365520000      0.4181560000
O                 -6.5558020000      2.4429790000     -1.0411770000
H                 -7.6904180000     -0.0418650000      0.3959600000
H                 -8.7015250000      1.2877930000     -0.2327730000
H                 -8.0953560000      1.3092800000      1.4505510000
$end

$rem
   BASIS  =  6-311++G(d,p)
   GUI  =  2
   JOB_TYPE  =  SP
   METHOD  =  B3LYP
   SCF_CONVERGENCE  = 8
   SOLVENT_METHOD = sm12
$end

$smx
   solvent dimethylformamide
   charges CM5
$end





