$molecule
-2 1
C                  0.7901260000      1.7059230000     -0.6366420000
C                 -0.5047370000      1.0407330000     -0.5920940000
C                 -0.6257160000     -0.2751560000     -0.0807200000
C                  0.5543080000     -1.0310760000      0.3156970000
C                  1.8235420000     -0.3609340000      0.2427660000
C                  1.9373100000      0.9473140000     -0.2197310000
C                  3.2831760000      1.6287670000     -0.3174170000
C                  3.0362790000     -1.1363260000      0.7044790000
O                  0.9220930000      2.9300040000     -1.0541190000
O                  0.4767260000     -2.2572530000      0.7405650000
H                  4.0426110000      0.9824700000     -0.7807780000
H                  3.6826840000      1.9214900000      0.6684150000
H                  3.1656160000      2.5406120000     -0.9081000000
H                  2.6937360000     -2.0294870000      1.2328490000
H                  3.6829280000     -0.5403730000      1.3645930000
H                  3.6703480000     -1.4704520000     -0.1342690000
C                 -1.9032790000     -1.0795830000      0.1944790000
C                 -3.0925500000     -0.3577890000      0.8504150000
C                 -2.3459340000     -1.9730120000     -0.9885110000
C                 -1.5937250000      1.9317640000     -1.2046680000
C                 -2.2852650000      2.8657180000     -0.1833620000
C                 -2.5996120000      1.2906510000     -2.1756130000
H                 -1.5524860000     -1.8028070000      0.9391510000
H                 -3.8164820000     -1.0993500000      1.2170030000
H                 -3.6373140000      0.3161610000      0.1876500000
H                 -2.7544310000      0.2303030000      1.7099290000
H                 -3.1665230000     -2.6453320000     -0.6855540000
H                 -1.5000520000     -2.5919460000     -1.2982090000
H                 -2.6894650000     -1.3981380000     -1.8523320000
H                 -0.9978350000      2.6210980000     -1.8132440000
H                 -2.9378500000      3.5921120000     -0.6968290000
H                 -1.5181610000      3.4255030000      0.3576740000
H                 -2.8972560000      2.3253390000      0.5433230000
H                 -3.1372580000      2.0785430000     -2.7220100000
H                 -3.3547520000      0.6632820000     -1.6997670000
H                 -2.0766680000      0.6721460000     -2.9124460000
$end
$rem
   MAX_SCF_CYCLES=200
   BASIS  =  6-311++G(d,p)
   GUI  =  2
   JOB_TYPE  =  SP
   METHOD  =  B3LYP
   SOLVENT_METHOD = COSMO
$end
$solvent
   dielectric 37.219
   opticaldielectric 1.43
$end





