%chk=274-an.chk
%nproc=8
%mem=30GB
#P UB3LYP/6-311++G(d,p) nosym opt freq

Reduced

-2 1
C                 -1.6882190000      3.0830590000      0.2958400000
C                 -2.8649020000      2.3730490000      0.1515240000
C                 -2.8211590000      0.9824630000     -0.1365500000
C                 -0.4140400000      2.4729420000      0.1606600000
C                 -0.3736040000      1.0571390000     -0.1347260000
C                 -1.5923920000      0.3585670000     -0.2719210000
C                  0.7776650000      3.2771390000      0.3520140000
C                  2.0122330000      2.5590440000      0.1807630000
C                  2.0390940000      1.1822200000     -0.1250680000
C                  0.8940990000      0.3549250000     -0.2881070000
O                  0.7132680000      4.5371760000      0.6472530000
O                  0.9636670000     -0.9037610000     -0.5594460000
N                  3.2389800000      3.2852830000      0.3531680000
C                  3.3851980000      4.4833910000     -0.4534820000
C                  4.4653580000      2.5386660000      0.4743770000
H                 -1.6927120000      4.1453670000      0.5207210000
H                 -3.8244530000      2.8779520000      0.2586930000
H                 -3.7441980000      0.4155030000     -0.2485520000
H                 -1.5171780000     -0.7028230000     -0.4915640000
H                  2.9911630000      0.6770300000     -0.2545940000
H                  2.4455530000      5.0388900000     -0.4052180000
H                  3.6348640000      4.2500860000     -1.5113930000
H                  4.1964890000      5.1053670000     -0.0492240000
H                  4.3509090000      1.7321380000      1.2048500000
H                  5.2728000000      3.2005990000      0.8208450000
H                  4.8104150000      2.0803790000     -0.4752320000


