$molecule
-1 2
C                  2.8349970000     -0.4171460000      0.4159170000
O                  1.6564280000      0.2835640000      0.8041580000
C                  0.4685850000     -0.2981480000      0.4144920000
C                 -0.3687760000      0.4061670000     -0.4248090000
O                  0.0807380000      1.5925180000     -0.9649190000
C                 -0.6755860000      2.7477050000     -0.6126360000
C                 -1.6810400000     -0.1036140000     -0.8180920000
O                 -2.4432660000      0.5342690000     -1.6004740000
C                 -2.0329720000     -1.3895170000     -0.2638150000
C                 -1.1954200000     -2.0954960000      0.5584260000
C                  0.0999980000     -1.6022430000      0.9623790000
O                  0.8603030000     -2.2420200000      1.7451370000
H                  2.9209360000     -0.4466200000     -0.6787890000
H                  3.6759170000      0.1497760000      0.8228320000
H                  2.8364150000     -1.4308360000      0.8221310000
H                 -0.2160630000      3.5869650000     -1.1404700000
H                 -0.6157780000      2.9304900000      0.4688650000
H                 -1.7178110000      2.6388900000     -0.9201570000
H                 -3.0053180000     -1.7809860000     -0.5488870000
H                 -1.4822860000     -3.0637190000      0.9587110000
$end

$rem
   BASIS  =  6-311++G(d,p)
   GUI  =  2
   JOB_TYPE  =  SP
   METHOD  =  B3LYP
   SCF_CONVERGENCE  = 8
   SOLVENT_METHOD = sm12
$end

$smx
   solvent dimethylformamide
   charges CM5
$end





