%chk=276-rad.chk
%nproc=8
%mem=30GB
#P UB3LYP/6-311++G(d,p) nosym  opt freq

Radical

-1 2
C                  4.2453200000     -0.0072300000     -0.1589040000
S                  3.0291540000     -1.3584070000     -0.3062560000
C                  1.4796690000     -0.4843420000     -0.1285830000
C                  1.3605610000      0.8779490000      0.0682420000
C                  0.0942510000      1.5441470000      0.2063590000
O                  0.0040950000      2.7876030000      0.3862700000
C                 -1.0993800000      0.6817030000      0.1260720000
C                 -2.3822470000      1.2464560000      0.2504890000
C                 -3.5188830000      0.4599450000      0.1785700000
C                 -3.3979560000     -0.9294260000     -0.0222380000
C                 -2.1459720000     -1.5039430000     -0.1468710000
C                 -0.9766620000     -0.7191000000     -0.0762970000
C                  0.3350680000     -1.3658860000     -0.2132330000
O                  0.4634240000     -2.6056870000     -0.3933750000
H                  4.1259870000      0.7346340000     -0.9511870000
H                  5.2247860000     -0.4790130000     -0.2598780000
H                  4.1882690000      0.4861330000      0.8135410000
H                  2.2279500000      1.5239390000      0.1295540000
H                 -2.4421260000      2.3181300000      0.4041450000
H                 -4.5020670000      0.9110170000      0.2764310000
H                 -4.2886260000     -1.5486200000     -0.0790620000
H                 -2.0246150000     -2.5700040000     -0.3019260000


