$molecule
0 1
C                  5.8582800000     -5.2294190000      1.1624730000
C                  6.7774480000     -5.1320140000      0.1218010000
C                  6.5988900000     -4.1640260000     -0.8788280000
C                  4.7625820000     -4.3706110000      1.2145560000
C                  4.5845240000     -3.4057400000      0.2171320000
C                  5.5036350000     -3.3068200000     -0.8251360000
C                  3.7870750000     -4.4878610000      2.3357600000
C                  2.6232710000     -3.5509800000      2.3596720000
C                  2.4502830000     -2.6154830000      1.3917030000
C                  3.4164530000     -2.4802640000      0.2601250000
O                  3.9375960000     -5.3272940000      3.2090250000
O                  3.2564900000     -1.6362350000     -0.6070890000
H                  5.9825790000     -5.9704590000      1.9409810000
H                  5.3526240000     -2.5557180000     -1.5891420000
Br                 8.2500700000     -6.3392050000      0.1158460000
Br                 7.8130780000     -3.9704660000     -2.3328340000
C                  1.6627100000     -3.7020780000      3.5055590000
C                  1.2860600000     -1.6650870000      1.3988220000
H                  1.9881160000     -4.4955770000      4.1752660000
H                  0.6573920000     -3.9390340000      3.1426800000
H                  1.5839000000     -2.7703020000      4.0743910000
H                  0.3371110000     -2.2103560000      1.3896960000
H                  1.3224530000     -1.0091720000      0.5313480000
H                  1.2907890000     -1.0500290000      2.3044450000
$end
$rem
   MAX_SCF_CYCLES=200
   BASIS  =  6-311++G(d,p)
   GUI  =  2
   JOB_TYPE  =  SP
   METHOD  =  B3LYP
   SOLVENT_METHOD = PCM
$end
$pcm
   theory = CPCM
$end
$solvent
   dielectric 37.219
   opticaldielectric 1.43
$end






