$molecule
0 1
C                 -4.5594670000      0.8903610000      0.3457680000
C                 -3.2154080000      0.2413320000      0.1780080000
C                 -3.0766070000     -1.1084240000     -0.0574780000
C                 -1.8137330000     -1.7181430000     -0.2149830000
O                 -1.7957290000     -3.0376070000     -0.4401450000
C                 -0.6502600000     -0.9345990000     -0.1313120000
C                  0.6563780000     -1.5468030000     -0.2911660000
O                  0.7596740000     -2.7892650000     -0.5069430000
C                  1.8495400000     -0.7155070000     -0.2005200000
C                  3.1220110000     -1.2934660000     -0.3528640000
O                  3.3168340000     -2.5980810000     -0.5829160000
C                  4.2694940000     -0.4743290000     -0.2623810000
C                  4.1576740000      0.8733900000     -0.0285670000
C                  2.8919810000      1.4804840000      0.1284570000
O                  2.8700110000      2.8001910000      0.3537180000
C                  1.7322330000      0.6885980000      0.0432250000
C                  0.4202540000      1.2999690000      0.2031680000
O                  0.3190030000      2.5425430000      0.4187820000
C                 -0.7716750000      0.4687850000      0.1125680000
C                 -2.0428250000      1.0459170000      0.2648650000
O                 -2.2266980000      2.3529520000      0.4949570000
H                 -4.7084690000      1.6725600000     -0.4037990000
H                 -4.6349800000      1.3787550000      1.3212990000
H                 -5.3612630000      0.1570120000      0.2550300000
H                 -3.9503350000     -1.7460830000     -0.1287200000
H                 -0.8490360000     -3.3050550000     -0.5259820000
H                  2.4262860000     -3.0233010000     -0.6173890000
H                  5.2382600000     -0.9438000000     -0.3833390000
H                  5.0349120000      1.5050650000      0.0415250000
H                  1.9232220000      3.0653840000      0.4391710000
H                 -1.3312810000      2.7711600000      0.5279620000
$end

$rem
   BASIS  =  6-311++G(d,p)
   GUI  =  2
   JOB_TYPE  =  SP
   METHOD  =  B3LYP
   SCF_CONVERGENCE  = 8
   SOLVENT_METHOD = sm12
$end

$smx
   solvent dimethylformamide
   charges CM5
$end





