%chk=292-rad.chk
%nproc=8
%mem=30GB
#P UB3LYP/6-311++G(d,p) nosym  opt freq SCRF=(PCM,Solvent=n,n-DiMethylFormamide)

Radical

-1 2
C                  0.5292760000      1.9000900000     -1.3327470000
C                 -0.5607560000      1.3488050000     -1.9802670000
C                 -0.6581690000     -0.0488750000     -2.1332210000
C                  1.5553570000      1.0790690000     -0.8172520000
C                  1.4587120000     -0.3337000000     -0.9711280000
C                  0.3404570000     -0.8690480000     -1.6336980000
C                  2.6963610000      1.6579260000     -0.1390850000
C                  3.6939570000      0.7373500000      0.3539670000
C                  3.6266530000     -0.6341720000      0.2293880000
C                  2.5042830000     -1.2409900000     -0.4523100000
O                  2.8829340000      2.9040470000      0.0530500000
O                  2.4130020000     -2.4879530000     -0.5982750000
O                  4.7411100000      1.3512250000      0.9782740000
H                  0.6264790000      2.9720800000     -1.2030880000
H                 -1.3428910000      1.9926070000     -2.3721420000
H                 -1.5145510000     -0.4807860000     -2.6423550000
H                  0.2920000000     -1.9470320000     -1.7382410000
H                  4.4894630000      2.2991180000      0.9099160000
C                  4.7094720000     -1.5289630000      0.7741660000
C                  5.7764620000     -1.8754010000     -0.2841920000
C                  6.8197310000     -2.9165210000      0.1864830000
C                  7.7079290000     -3.3647470000     -0.9630810000
C                  8.6144660000     -2.4877120000     -1.5757290000
C                  7.6337470000     -4.6708050000     -1.4594930000
C                  9.4224660000     -2.8986160000     -2.6327220000
C                  9.3331520000     -4.2085900000     -3.0923470000
C                  8.4366750000     -5.0990040000     -2.5168570000
H                  4.2433330000     -2.4607060000      1.1116520000
H                  5.1782620000     -1.0427870000      1.6333390000
H                  6.2886230000     -0.9569860000     -0.5947870000
H                  5.2646290000     -2.2700680000     -1.1663310000
H                  6.2616760000     -3.8002900000      0.5191250000
C                  7.6568890000     -2.4204650000      1.3811500000
H                  8.6847080000     -1.4620570000     -1.2313560000
H                  6.9262490000     -5.3647630000     -1.0174220000
H                  8.3663290000     -6.1103620000     -2.9005250000
O                 10.0918340000     -4.6104550000     -4.1945260000
C                 11.3615790000     -5.0936610000     -4.0070250000
C                 11.9589890000     -5.2586590000     -2.7555430000
C                 12.0619000000     -5.4345460000     -5.1693400000
C                 13.3540160000     -5.9373360000     -5.0760180000
C                 13.2573250000     -5.7644280000     -2.6793390000
C                 13.9626210000     -6.1063300000     -3.8302360000
H                 10.1134140000     -2.2115980000     -3.1079000000
H                  7.0189960000     -2.2131450000      2.2426050000
H                  8.1888360000     -1.4955990000      1.1374770000
H                  8.3985320000     -3.1679910000      1.6795580000
H                 11.4177310000     -4.9955190000     -1.8563990000
H                 11.5757980000     -5.2968510000     -6.1278150000
H                 13.8895340000     -6.1984100000     -5.9825170000
H                 13.7159480000     -5.8898620000     -1.7043490000
H                 14.9707950000     -6.4979820000     -3.7603850000


