%chk=270-rad.chk
%nproc=8
%mem=30GB
#P UB3LYP/6-311++G(d,p) nosym  opt freq

Radical

-1 2
C                 -0.9703480000      3.9908370000     -0.1174870000
C                 -2.2149470000      3.3922560000     -0.1896520000
C                 -2.3216410000      1.9870310000     -0.2068890000
C                  0.2063400000      3.2145970000     -0.0574410000
C                  0.0980500000      1.7964640000     -0.0753200000
C                 -1.1775850000      1.2087000000     -0.1528800000
C                  1.5077700000      3.8665530000     -0.0032190000
C                  2.6692440000      2.9985320000      0.0710980000
C                  2.5528670000      1.6168610000      0.1079380000
C                  1.2906930000      0.9320930000     -0.0131560000
O                  1.6590220000      5.1248260000     -0.0388340000
O                  1.2072530000     -0.3200170000     -0.0625930000
N                  3.8985250000      3.6620400000      0.1503620000
S                  3.9872940000      0.5464660000      0.2483440000
H                 -0.8612180000      5.0693320000     -0.1064990000
H                 -3.1109810000      4.0047540000     -0.2337250000
H                 -3.2988520000      1.5166830000     -0.2639320000
H                 -1.2277270000      0.1258550000     -0.1678220000
H                  3.7498120000      4.6507570000     -0.0374280000
H                  4.6293350000      3.2537820000     -0.4196680000
H                  4.7522460000      1.4487600000      0.9023820000


