%chk=252-an.chk
%nproc=8
%mem=30GB
#P UB3LYP/6-311++G(d,p) nosym opt freq SCF=YQC Int=Acc2E=11

Reduced

-2 1
 C                 -2.64676300   -4.04474400    4.05822100
 C                 -3.22118300   -5.22551600    3.62077100
 C                 -4.56508300   -5.23473600    3.18902300
 C                 -3.37751500   -2.83931700    4.08399100
 C                 -4.73444200   -2.84966400    3.64853500
 C                 -5.30066100   -4.06257300    3.20672000
 C                 -2.73286200   -1.60824200    4.55432700
 C                 -3.55532100   -0.41612000    4.55503600
 C                 -4.87977300   -0.42790700    4.11443100
 C                 -5.54136300   -1.62687600    3.65290900
 O                 -1.52260400   -1.60516200    4.93393000
 O                 -6.75078300   -1.62564800    3.26853600
 H                 -2.64030500   -6.14408500    3.61009300
 H                 -5.01989000   -6.15997800    2.84513400
 C                 -2.89992300    0.85043500    5.05120500
 H                 -1.61685000   -4.00654000    4.39580000
 H                 -6.33549200   -4.03780500    2.88302300
 H                 -2.76346400    1.58668300    4.24615700
 H                 -1.91459900    0.60356000    5.44859400
 H                 -3.49182400    1.33724500    5.83441400
 C                 -5.72421200    0.83562000    4.08460900
 C                 -6.55061300    1.01374200    5.33371700
 C                 -6.66653400    2.08884100    6.12802700
 C                 -7.57433600    2.05409600    7.34224000
 C                 -8.80486000    2.99195700    7.23871500
 C                 -9.70538700    2.91748200    8.44055000
 C                 -9.98112500    3.86959100    9.34396100
 C                 -5.93220500    3.39214800    5.91086100
 C                -10.93166000    3.59518300   10.49255200
 C                -12.24822300    4.41059500   10.43151700
 C                -13.18512300    4.09598700   11.56572300
 C                -13.60825400    4.90306100   12.54965100
 C                 -9.38981200    5.26012800    9.31594400
 C                -13.18360700    6.34463400   12.70675500
 C                -14.57113100    4.39535400   13.60429600
 C                -15.96378800    5.07387800   13.56979200
 C                -16.91089900    4.51366700   14.59581000
 C                -17.47049600    5.13504900   15.64439300
 C                -17.22072000    6.57965500   16.00969900
 C                -18.41854800    4.39060000   16.56286300
 C                -19.87516400    4.91754600   16.53305900
 C                -20.80345200    4.11190900   17.40044400
 C                -21.50389500    4.50971500   18.47288800
 C                -21.46445000    5.90690800   19.04622700
 C                -22.40529800    3.53536300   19.20351900
 C                -23.91470200    3.87395300   19.10936100
 C                -24.77826000    2.84163400   19.78166900
 C                -25.61448900    2.98937800   20.81970200
 C                -25.87521600    4.29711200   21.52874700
 C                -26.39274300    1.79953200   21.34641300
 C                -25.94671900    1.30978000   22.74779000
 C                -26.82756900    0.21106000   23.27553300
 C                -26.51690600   -1.06746400   23.52894700
 C                -25.15449600   -1.68170700   23.32325200
 C                -27.55706600   -2.02737700   24.05473800
 H                 -6.42505600    0.72432600    3.24801100
 H                 -5.10394600    1.71314300    3.89074400
 H                 -7.12704100    0.12776400    5.59319800
 H                 -7.00608400    2.33806100    8.23980000
 H                 -7.92340200    1.02949100    7.50428700
 H                 -9.37521700    2.69584700    6.34904100
 H                 -8.47349700    4.01730300    7.06150600
 H                -10.17899600    1.94627200    8.58806400
 H                 -5.16771800    3.31246200    5.13854800
 H                 -5.44022700    3.71782400    6.83679400
 H                 -6.61375700    4.20059900    5.61645000
 H                -10.43358500    3.82397100   11.44445500
 H                -11.17633500    2.52848000   10.51663700
 H                -12.74577200    4.17490400    9.48177400
 H                -12.02050600    5.47775800   10.39946400
 H                -13.55204300    3.06925600   11.57636100
 H                 -8.59041000    5.36201100    8.58267700
 H                 -8.97792800    5.51831500   10.29896800
 H                -10.14858500    6.01723800    9.08561100
 H                -12.36358200    6.62034100   12.04380700
 H                -12.86099000    6.53556200   13.73705900
 H                -14.01434900    7.03153000   12.50840300
 H                -14.13904500    4.55609300   14.60098400
 H                -14.70038800    3.31427100   13.49041400
 H                -16.38926900    4.92009800   12.56917400
 H                -15.85270800    6.15292400   13.69141900
 H                -17.16069100    3.46197000   14.45288300
 H                -16.40489600    7.02887500   15.44256200
 H                -16.97491000    6.66572100   17.07499000
 H                -18.11331600    7.19462500   15.84685600
 H                -18.05304900    4.45792300   17.59618300
 H                -18.42077900    3.32757300   16.30056400
 H                -20.22880300    4.87275600   15.49397000
 H                -19.89349000    5.97145100   16.81627000
 H                -20.90862100    3.06878400   17.10053800
 H                -20.68367500    6.52847400   18.60649100
 H                -21.29146000    5.86945500   20.12878100
 H                -22.41889100    6.42651700   18.90287500
 H                -22.12765800    3.50701300   20.26553000
 H                -22.24452300    2.52594100   18.81072100
 H                -24.18184300    3.92902200   18.04562400
 H                -24.09571200    4.86693200   19.52421200
 H                -24.69320600    1.84064800   19.35741400
 H                -25.31830800    5.13449600   21.10707100
 H                -25.61702900    4.23323400   22.59180800
 H                -26.94277900    4.54794200   21.48451500
 H                -26.30886400    0.96397500   20.64488500
 H                -27.45898000    2.05988700   21.39512200
 H                -25.98570200    2.15208500   23.45004000
 H                -24.90025300    1.00153900   22.69688900
 H                -27.85767300    0.51454100   23.46426800
 H                -24.41875500   -0.98146000   22.92675300
 H                -25.21910500   -2.53134400   22.63123700
 H                -24.76633100   -2.08169500   24.26864300
 H                -28.52701000   -1.54285600   24.19530700
 H                -27.24782000   -2.45560400   25.01666900
 H                -27.69414100   -2.87331400   23.36810800
































