$molecule
-2 1
C                 -2.1784800000     -3.9145440000      1.1110960000
C                 -0.7649990000     -3.8387700000      1.3860580000
C                 -0.0712750000     -2.6745710000      1.6689390000
C                 -0.6869860000     -1.3781810000      1.7158260000
C                 -2.1087360000     -1.4155680000      1.4580030000
C                 -2.7794830000     -2.6202910000      1.1655950000
O                 -2.7857930000     -5.0222360000      0.8666290000
O                 -0.0320230000     -0.2894970000      1.9254480000
Cl                -4.5650130000     -2.5645240000      0.9129400000
C                 -2.8030690000     -0.1079590000      1.4601070000
O                 -3.2392040000      0.5118670000      0.5094410000
O                 -2.9142810000      0.4050780000      2.7293050000
C                 -3.3774950000      1.7498140000      2.8131470000
H                 -0.2393440000     -4.7936220000      1.3662270000
H                  1.0005100000     -2.7077130000      1.8635500000
H                 -3.3810010000      2.0055210000      3.8759890000
H                 -4.3864980000      1.8534950000      2.4014020000
H                 -2.7082000000      2.4266620000      2.2721980000
$end

$rem
   BASIS  =  6-311++G(d,p)
   GUI  =  2
   JOB_TYPE  =  SP
   METHOD  =  B3LYP
   SCF_CONVERGENCE  = 8
   SOLVENT_METHOD = sm12
$end

$smx
   solvent dimethylformamide
   charges CM5
$end





