%chk=138.chk
%nproc=8
%mem=30GB
#P UB3LYP/6-311++G(d,p) nosym opt freq SCRF=(PCM,Solvent=n,n-DiMethylFormamide)

Oxidized

0 1
C                  4.7147890000     -0.7115710000      0.8832070000
O                  4.2589410000      0.3487950000      0.0444690000
C                  2.9268400000      0.5001360000     -0.1509800000
C                  2.5508180000      1.5656760000     -0.9890390000
C                  1.2163620000      1.8038460000     -1.2512350000
C                  0.2184560000      0.9921600000     -0.6896410000
C                 -1.2064340000      1.2731100000     -0.9902280000
O                 -1.5381480000      2.1972860000     -1.7177570000
C                 -2.2296270000      0.3787760000     -0.3667430000
C                 -3.5831020000      0.6115360000     -0.6259260000
C                 -4.5545280000     -0.2054060000     -0.0585960000
C                 -4.1820810000     -1.2640950000      0.7742070000
C                 -2.8386040000     -1.5033910000      1.0378090000
C                 -1.8549130000     -0.6865640000      0.4712930000
C                 -0.4208780000     -0.9651920000      0.7705340000
O                 -0.0906390000     -1.8887650000      1.4974230000
C                  0.5989010000     -0.0693860000      0.1457080000
C                  1.9479470000     -0.3159370000      0.4151420000
H                  4.4188350000     -1.6863890000      0.4839580000
H                  4.3339910000     -0.6004600000      1.9029680000
H                  5.8001810000     -0.6347250000      0.8893400000
H                  3.3293550000      2.1856080000     -1.4169680000
H                  0.9146150000      2.6209320000     -1.8948060000
H                 -3.8489350000      1.4373910000     -1.2741100000
H                 -5.6029430000     -0.0200730000     -0.2632020000
H                 -4.9412330000     -1.8998420000      1.2155380000
H                 -2.5270050000     -2.3178170000      1.6800380000
H                  2.1890380000     -1.1456380000      1.0646710000


