%chk=304-an.chk
%nproc=8
%mem=30GB
#P UB3LYP/6-311++G(d,p) nosym opt freq SCF=YQC

Reduced

-2 1
C         -4.09926        3.61712        1.51304
C         -4.58451        3.83767        0.22075
C         -3.98389        3.18629       -0.85834
C         -2.90521        2.32014       -0.64624
C         -2.42255        2.10210        0.64880
C         -3.02047        2.75108        1.72655
C         -2.52178        2.53012        3.09501
C         -1.37482        1.60277        3.27546
C         -0.80597        0.98395        2.24042
C         -1.28374        1.18593        0.86066
O         -3.01032        3.07504        4.07920
O         -0.74554        0.60677       -0.07392
O         -0.91604        1.40377        4.56454
O         -5.63915        4.70375        0.14964
C         -6.17613        4.96725       -1.14107
H         -4.56860        4.12579        2.35386
H         -4.32915        3.32910       -1.87791
H         -2.44473        1.81759       -1.49580
H          0.03028        0.30781        2.37198
H         -1.49189        1.96225        5.13126
H         -7.00437        5.67219       -1.02091
H         -6.57761        4.05512       -1.59473
H         -5.42980        5.43699       -1.79015






