%chk=121-rad.chk
%nproc=8
%mem=30GB
#P UB3LYP/6-311++G(d,p) nosym opt freq

Radical

-1 2
Cl    2.4682882640    3.1223373294   -0.5113826867
C     2.4734850171    1.3987924117   -0.1987916009
C     3.7017949005    0.7814286808   -0.0596705267
C     3.6892719566   -0.5763606301    0.1861925198
C     2.5024378218   -1.2708918594    0.2858070552
C     1.2763399048   -0.6360962776    0.1435751739
C     0.0239553211   -1.3763264841    0.2500189821
O     0.0208616615   -2.6226400289    0.4758879166
C    -1.2788586785   -0.7128443853    0.1008851497
C    -2.4728165788   -1.3984284626    0.1987369161
Cl   -2.4374242849   -3.1233814372    0.5122261567
C    -3.7012424132   -0.7767368328    0.0588436130
C    -3.6938238198    0.5807998991   -0.1870889386
C    -2.5045955432    1.2714264691   -0.2859557438
C    -1.2763092889    0.6466957652   -0.1455125304
C    -0.0176044211    1.3764059300   -0.2499092102
O    -0.0089886151    2.6074721998   -0.4728818715
C     1.2821155874    0.7120839337   -0.1006935865
H     4.6271451754    1.3453350502   -0.1413997381
H     4.6499022637   -1.0682713389    0.2966663039
H     2.4854029731   -2.3293822252    0.4773156719
H    -4.6326898263   -1.3459216791    0.1413958567
H    -4.6575437597    1.0589511821   -0.2951004548
H    -2.5191036177    2.3355527902   -0.4791644273


