$molecule
-2 1
C                 -0.7993500000      2.8581910000      0.3569350000
C                 -1.4906060000      2.9604780000     -0.8326070000
C                 -1.0245820000      2.2836600000     -1.9881100000
C                  0.3879080000      2.0821340000      0.4657370000
C                  0.8611790000      1.3919080000     -0.7110250000
C                  0.1301030000      1.5192860000     -1.9059350000
C                  1.0895120000      1.9894300000      1.7060080000
C                  2.2595060000      1.1855060000      1.7024990000
C                  2.7542590000      0.5019140000      0.5714660000
C                  2.0815260000      0.5658140000     -0.7041330000
O                  0.7520010000      2.5684670000      2.8316000000
O                  2.4777160000     -0.0414460000     -1.7438330000
O                  2.8760270000      1.1424150000      2.9218060000
H                 -1.1389480000      3.3672610000      1.2533710000
H                 -2.3968690000      3.5619000000     -0.8847430000
H                 -1.5681700000      2.3621910000     -2.9268930000
H                  0.5155150000      0.9854170000     -2.7690950000
H                  2.2508140000      1.7223880000      3.4318440000
S                  4.3156010000     -0.3452900000      0.6845600000
C                  3.9425880000     -2.0857440000      0.7873220000
C                  2.6497070000     -2.6131560000      0.6633640000
C                  5.0011720000     -2.9822310000      0.9945920000
C                  2.4367450000     -3.9850660000      0.7516560000
C                  4.7742450000     -4.3548990000      1.0780030000
C                  3.4872200000     -4.8895280000      0.9600190000
C                  3.2365890000     -6.3779970000      1.0497760000
H                  1.8244980000     -1.9331390000      0.4901590000
H                  6.0125700000     -2.5980130000      1.0956390000
H                  1.4218680000     -4.3640350000      0.6494100000
H                  5.6168130000     -5.0237030000      1.2435530000
H                  4.1597440000     -6.9294080000      1.2543040000
H                  2.8181980000     -6.7798160000      0.1184060000
H                  2.5271580000     -6.6264250000      1.8493420000
$end
$rem
   MAX_SCF_CYCLES=200
   BASIS  =  6-311++G(d,p)
   GUI  =  2
   JOB_TYPE  =  SP
   METHOD  =  B3LYP
   SOLVENT_METHOD = COSMO
$end
$solvent
   dielectric 37.219
   opticaldielectric 1.43
$end





