%chk=342-rad.chk
%nproc=8
%mem=30GB
#P UB3LYP/6-311++G(d,p) nosym  opt freq SCRF=(PCM,Solvent=n,n-DiMethylFormamide)

Radical

-2 2
C                 -3.4910560000      2.4308950000      1.1340260000
C                 -4.2138110000      2.2998590000      2.3041160000
C                 -3.8327700000      1.3563790000      3.2733210000
C                 -2.3419150000      1.6242220000      0.8634270000
C                 -1.9548770000      0.6657510000      1.8472210000
C                 -2.7030040000      0.5563830000      3.0173420000
C                 -1.6335010000      1.8174530000     -0.3836450000
C                 -0.4514870000      0.9724850000     -0.6293980000
C                 -0.0140610000      0.0015430000      0.3024640000
C                 -0.7341350000     -0.2462380000      1.6397280000
C                  0.2697620000      1.1355130000     -1.8388330000
C                  1.3879860000      0.3664270000     -2.1233230000
C                  1.8193380000     -0.5947070000     -1.2052120000
C                  1.1157040000     -0.7619510000     -0.0136020000
O                 -2.0133020000      2.6812630000     -1.2318940000
S                  2.3701580000      0.6189300000     -3.6507810000
O                  1.3950120000      1.0140050000     -4.7020720000
O                  3.3497240000      1.6914050000     -3.3106910000
O                  3.0200360000     -0.7032140000     -3.9003640000
C                  0.2737920000     -0.0031650000      2.7984780000
C                 -1.2060950000     -1.7273690000      1.6832770000
H                 -3.7663420000      3.1516670000      0.3730910000
H                 -5.0834240000      2.9321920000      2.4751170000
H                 -4.3908690000      1.2420600000      4.1978890000
H                 -2.4120760000     -0.1722850000      3.7695740000
H                 -0.0872280000      1.8755500000     -2.5431680000
H                  2.6814370000     -1.2060270000     -1.4418320000
H                  1.4659950000     -1.5184540000      0.6837050000
H                  0.6152890000      1.0347880000      2.7837240000
H                  1.1513870000     -0.6491040000      2.7009960000
H                 -0.1893170000     -0.1955890000      3.7715180000
H                 -0.3638790000     -2.4147240000      1.5600500000
H                 -1.9169990000     -1.9157980000      0.8749530000
H                 -1.7015130000     -1.9557050000      2.6323660000


