$molecule
-2 1
C                 -5.0155420000     -1.0223970000     -0.0275940000
O                 -3.6124060000     -1.0874580000      0.0166110000
C                 -2.8912520000      0.0822510000      0.0053450000
C                 -3.5332710000      1.3122140000     -0.0293240000
C                 -2.7758440000      2.5092120000     -0.0420670000
C                 -1.4041360000      2.4512650000     -0.0334380000
C                 -0.7128190000      1.2155760000     -0.0055920000
C                  0.7527840000      1.2988190000     -0.0072190000
O                  1.3237020000      2.4313170000     -0.0436370000
C                  1.4556500000      0.0244680000      0.0402030000
C                  2.8912600000     -0.0825330000      0.0317700000
O                  3.6126190000      1.0842240000     -0.0504860000
C                  5.0160090000      1.0161660000     -0.0793690000
C                  3.5331830000     -1.3108610000      0.1047370000
C                  2.7755300000     -2.5049180000      0.1875150000
C                  1.4038070000     -2.4468400000      0.1821400000
C                  0.7126410000     -1.2133910000      0.1014820000
C                 -0.7529550000     -1.2968890000      0.0969540000
O                 -1.3239340000     -2.4285930000      0.1520500000
C                 -1.4557480000     -0.0232580000      0.0323410000
H                 -5.3644880000     -2.0576850000     -0.0484040000
H                 -5.4432330000     -0.5220330000      0.8545810000
H                 -5.3881860000     -0.5067610000     -0.9262530000
H                 -4.6139850000      1.3704520000     -0.0368930000
H                 -3.2930530000      3.4660610000     -0.0654910000
H                 -0.7903890000      3.3441650000     -0.0499890000
H                  5.3653190000      2.0461840000     -0.1845510000
H                  5.3947550000      0.4271250000     -0.9290290000
H                  5.4374900000      0.5917140000      0.8445940000
H                  4.6139100000     -1.3692100000      0.1091110000
H                  3.2926070000     -3.4602080000      0.2480410000
H                  0.7899730000     -3.3381800000      0.2365370000
$end

$rem
   BASIS  =  6-311++G(d,p)
   GUI  =  2
   JOB_TYPE  =  SP
   METHOD  =  B3LYP
   SCF_CONVERGENCE  = 8
   SOLVENT_METHOD = sm12
$end

$smx
   solvent dimethylformamide
   charges CM5
$end





