$molecule
-2 1
C                  2.3461020000      3.5752960000      2.7567050000
C                  3.4234630000      3.5070090000      1.8230260000
C                  3.3952050000      2.6901490000      0.6986950000
C                  2.2459940000      1.8371290000      0.4049150000
C                  1.1687460000      1.9052170000      1.3387370000
C                  1.1969980000      2.7220840000      2.4630620000
O                  2.3374570000      4.3308920000      3.7971070000
O                  2.2548660000      1.0811360000     -0.6351960000
N                  0.1903690000      2.7755930000      3.4368570000
C                 -1.2084820000      2.5928980000      3.1219830000
C                 -2.0531120000      2.4499250000      4.3907520000
N                  4.4019280000      2.6365120000     -0.2749990000
C                  5.8007820000      2.8189240000      0.0400460000
C                  6.6455860000      2.9617250000     -1.2286250000
H                  4.2839010000      4.1347190000      2.0375810000
H                  0.3083900000      1.2773580000      1.1242890000
H                  0.4029220000      3.5627610000      4.0488610000
H                 -1.3174650000      1.6922700000      2.5130030000
H                 -1.6154510000      3.4263820000      2.5111950000
H                 -1.7242200000      1.5906110000      4.9833060000
H                 -3.1141290000      2.3181200000      4.1484740000
H                 -1.9724740000      3.3417540000      5.0231000000
H                  4.1892960000      1.8494430000     -0.8871000000
H                  6.2075060000      1.9853580000      0.6508850000
H                  5.9098750000      3.7195320000      0.6490350000
H                  6.5648440000      2.0699110000     -1.8609800000
H                  7.7066010000      3.0933200000     -0.9862250000
H                  6.3169350000      3.8211030000     -1.8212190000
$end
$rem
   MAX_SCF_CYCLES=200
   BASIS  =  6-311++G(d,p)
   GUI  =  2
   JOB_TYPE  =  SP
   METHOD  =  B3LYP
   SOLVENT_METHOD = PCM
$end
$pcm
   theory = CPCM
$end
$solvent
   dielectric 37.219
   opticaldielectric 1.43
$end





