$molecule
-1 2
C                  5.0468290000     -2.5047400000      0.0935290000
C                  5.7636650000     -1.5464220000     -0.5964450000
C                  5.0835700000     -0.5091140000     -1.2674090000
C                  3.6378420000     -2.4665720000      0.1399570000
C                  2.9513620000     -1.4214030000     -0.5363410000
C                  3.7040360000     -0.4527980000     -1.2345340000
C                  2.9206270000     -3.5100100000      0.8868300000
C                  1.4591400000     -3.4071550000      0.8855080000
C                  0.7723190000     -2.3524930000      0.2080130000
C                  1.4861850000     -1.3171480000     -0.5291280000
C                  0.7127900000     -4.3770990000      1.5800930000
C                 -0.6424910000     -2.3166390000      0.2562410000
C                 -1.3662540000     -3.2631880000      0.9417990000
O                  3.5230430000     -4.4247700000      1.4890620000
O                  0.8869010000     -0.3883340000     -1.1247950000
H                  5.5413550000     -3.3137270000      0.6185270000
H                 -2.4481750000     -3.2373520000      0.9692010000
H                  3.1562140000      0.3331610000     -1.7411080000
H                  1.2464770000     -5.1763480000      2.0791220000
H                 -1.1373430000     -1.5107870000     -0.2726890000
C                 -0.6660030000     -4.3010120000      1.6064410000
H                  5.6460130000      0.2446690000     -1.8101800000
H                  6.8481350000     -1.5905870000     -0.6231380000
S                 -1.5849650000     -5.4912260000      2.5492860000
O                 -0.7340650000     -6.6521460000      2.8334000000
O                 -2.9194380000     -5.6931710000      1.9736650000
N                 -1.8967380000     -4.6406680000      4.0066630000
H                 -1.0872690000     -4.7072380000      4.6186160000
H                 -2.7021250000     -5.0775320000      4.4486320000
$end

$rem
   BASIS  =  6-311++G(d,p)
   GUI  =  2
   JOB_TYPE  =  SP
   METHOD  =  B3LYP
   SCF_CONVERGENCE  = 8
   SOLVENT_METHOD = sm12
$end

$smx
   solvent dimethylformamide
   charges CM5
$end





