%chk=272-rad-PCM.chk
%nproc=8
%mem=30GB
#P UB3LYP/6-311++G(d,p) SCRF=(PCM,Solvent=n,n-DiMethylFormamide)

Radical PCM in DMF 

-1 2
C                 -0.8835400000      3.8285090000     -0.0169550000
C                 -1.9762280000      3.0683200000      0.3579490000
C                 -1.8433790000      1.6748130000      0.5286520000
C                  0.3770540000      3.2323390000     -0.2326890000
C                  0.5096580000      1.8266460000     -0.0563150000
C                 -0.6154590000      1.0701900000      0.3212070000
C                  1.5117990000      4.0502860000     -0.6370930000
C                  2.7886810000      3.3754700000     -0.8540850000
C                  2.9169230000      2.0103610000     -0.6110690000
C                  1.7980060000      1.1697090000     -0.2603300000
O                  1.4294720000      5.3001570000     -0.8140870000
O                  1.9483100000     -0.0856500000     -0.1583190000
N                  3.7939080000      4.1736570000     -1.3530100000
H                 -0.9621440000      4.9003780000     -0.1578410000
H                 -2.9389230000      3.5443880000      0.5203280000
H                 -2.7022230000      1.0788080000      0.8224700000
H                 -0.4830360000      0.0013690000      0.4446380000
H                  3.5375450000      5.1529580000     -1.2881120000
H                  4.7359370000      3.9239050000     -1.0628270000
N                  4.0868180000      1.2295050000     -0.8139040000
H                  3.8043900000      0.2483140000     -0.8182460000
C                  5.4025350000      1.4884740000     -0.6457140000
C                  6.3169500000      0.2827160000     -0.8775960000
C                  7.4083570000      0.1736420000      0.1912670000
O                  5.8926180000      2.5868650000     -0.3600370000
H                  6.7811200000      0.4231990000     -1.8612780000
H                  5.7342730000     -0.6416480000     -0.9322340000
H                  7.9603840000      1.1123820000      0.2620800000
H                  8.1099900000     -0.6310850000     -0.0484550000
H                  6.9751340000     -0.0353560000      1.1736850000





