%chk=331-an.chk
%nproc=8
%mem=30GB
#P UB3LYP/6-311++G(d,p) nosym opt freq

Reduced

-2 1
C                 -1.8530470000      3.4775310000     -0.9478230000
C                 -2.9568100000      2.9047780000     -0.3706950000
C                 -0.5997390000      2.7934800000     -1.0264190000
C                 -0.5316780000      1.4648620000     -0.4724980000
C                 -2.9032410000      1.6056960000      0.1748170000
C                 -1.6906930000      0.9212730000      0.1087020000
C                  0.5090470000      3.4942120000     -1.6602080000
C                  1.7895620000      2.7869710000     -1.7362320000
C                  1.8412280000      1.4449650000     -1.1719490000
C                  0.7339770000      0.7655420000     -0.5481280000
C                  3.0877360000      0.7477630000     -1.2427220000
C                  3.2395250000     -0.5190490000     -0.7411870000
C                  2.1640890000     -1.1945570000     -0.1286490000
C                  0.9399620000     -0.5325520000     -0.0490440000
O                  0.3405710000      4.6748710000     -2.1200250000
O                  2.8333970000      3.2978660000     -2.2683670000
O                  4.4699280000     -1.2004860000     -0.8142070000
O                 -4.1884230000      3.5838860000     -0.2963530000
H                 -1.8743240000      4.4791930000     -1.3742140000
H                 -3.7847850000      1.1649040000      0.6291360000
H                 -1.6532360000     -0.0793900000      0.5302490000
H                  3.9058210000      1.2858530000     -1.7189370000
H                  2.2987160000     -2.1971600000      0.2644010000
H                  0.1136830000     -1.0562520000      0.4236410000
H                  5.0746790000     -0.5959830000     -1.2564720000
H                 -4.0376570000      4.4393810000     -0.7112590000


