%chk=157.chk
%nproc=8
%mem=30GB
#P UB3LYP/6-311++G(d,p) nosym opt freq

Oxidized

-1 1
C                 -1.7098730000      1.8851080000     -5.1574730000
C                 -1.5978080000      0.5556200000     -5.5446890000
C                 -1.2445380000     -0.4219640000     -4.6082910000
C                 -1.4704870000      2.2581640000     -3.8296070000
C                 -1.1168700000      1.2770730000     -2.8928690000
C                 -1.0058520000     -0.0608170000     -3.2888990000
C                 -1.5985170000      3.7033170000     -3.4485580000
C                 -0.8595790000      1.6462730000     -1.4713340000
C                 -1.3350190000      4.0756520000     -2.0683210000
C                 -0.9865990000      3.0793920000     -1.1050490000
C                 -1.4436890000      5.4459710000     -1.6484870000
C                 -1.1682190000      5.7624080000     -0.2754530000
C                 -0.8548660000      4.7655180000      0.6182050000
C                 -0.7627580000      3.4250390000      0.2162560000
O                 -1.9234380000      4.5111630000     -4.3339230000
O                 -0.5597060000      0.7825640000     -0.6536260000
N                 -1.7956430000      6.4242990000     -2.4989120000
H                 -1.9814180000      2.6599810000     -5.8634280000
H                 -1.7848110000      0.2756360000     -6.5761230000
H                 -1.1573570000     -1.4597260000     -4.9121460000
H                 -0.7311560000     -0.7943070000     -2.5405760000
S                 -1.1031970000      7.5012780000      0.3153570000
H                 -0.6764710000      5.0488470000      1.6489730000
H                 -2.0119430000      6.1650420000     -3.4516280000
H                 -2.0089680000      7.3378750000     -2.0969440000
H                 -0.5089010000      2.6461950000      0.9234850000
O                 -2.2202610000      8.1727250000     -0.4171090000
O                 -1.3021550000      7.4075330000      1.7762560000
O                  0.2371080000      7.9664020000     -0.1063350000


