$molecule
-2 1
C                 -2.8744050000      3.9229520000      0.4811080000
C                 -4.1551110000      3.4191040000      0.5689570000
C                 -4.3254190000      2.0183300000      0.4668460000
C                 -1.7380560000      3.0966950000      0.3023980000
C                 -1.9410090000      1.6709520000      0.2000920000
C                 -3.2627020000      1.1711490000      0.2918990000
C                 -0.4222340000      3.7052470000      0.2332580000
C                  0.6705990000      2.7658030000      0.0524180000
C                  0.4676540000      1.3400580000     -0.0498820000
C                 -0.8481750000      0.7315050000      0.0192100000
C                  1.9922980000      3.2656040000     -0.0393600000
C                  3.0550140000      2.4184180000     -0.2142830000
C                  2.8847240000      1.0176340000     -0.3163710000
C                  1.6040040000      0.5138030000     -0.2285410000
O                 -0.2374090000      4.9640620000      0.3229980000
O                 -1.0329780000     -0.5273190000     -0.0703040000
H                 -3.4023460000      0.0978940000      0.2294070000
H                  1.4222770000     -0.5533700000     -0.2997610000
H                 -2.6926750000      4.9901220000      0.5523510000
H                  2.1319250000      4.3388610000      0.0231290000
H                  3.7403930000      0.3666390000     -0.4460230000
O                 -5.6030210000      1.4154250000      0.6589610000
O                  4.3326060000      3.0213830000     -0.4063320000
C                  5.4245280000      2.6338950000      0.2756050000
C                  6.6415760000      3.3960940000     -0.2117200000
O                  5.4682590000      1.7745060000      1.1269250000
H                 -5.0107710000      4.0701140000      0.6986490000
H                  6.3773990000      4.3943090000     -0.5608820000
H                  7.0975730000      2.8544180000     -1.0513240000
H                  7.3790310000      3.4512850000      0.5885060000
C                 -6.6948300000      1.8027760000     -0.0232890000
C                 -7.9119990000      1.0407860000      0.4640330000
O                 -6.7383260000      2.6617910000     -0.8749800000
H                 -7.6479190000      0.0427460000      0.8137730000
H                 -8.6491900000      0.9851610000     -0.3364100000
H                 -8.3683050000      1.5828590000      1.3032090000
$end
$rem
   MAX_SCF_CYCLES=200
   BASIS  =  6-311++G(d,p)
   GUI  =  2
   JOB_TYPE  =  SP
   METHOD  =  B3LYP
   SOLVENT_METHOD = PCM
$end
$pcm
   theory = CPCM
$end
$solvent
   dielectric 37.219
   opticaldielectric 1.43
$end





