$molecule
-2 1
O                  2.0380320000      2.8930720000     -1.1504750000
N                  2.7122360000      2.2859680000     -0.3074320000
O                  3.7216050000      2.8037290000      0.2542440000
C                  2.3888290000      0.9070010000     -0.0119320000
C                  3.4890500000      0.0704110000      0.0494500000
C                  3.3243900000     -1.3254080000      0.0316230000
C                  2.0424430000     -1.8527880000     -0.0877600000
C                  0.8993710000     -1.0461870000     -0.1106830000
C                 -0.3952540000     -1.7183890000     -0.1954520000
O                 -0.5125260000     -2.9797630000     -0.3366970000
C                 -1.5440790000     -0.8398170000     -0.0636490000
C                 -2.8484670000     -1.3826470000     -0.1454540000
C                 -3.9763050000     -0.5982230000     -0.0048240000
C                 -3.8292110000      0.7938890000      0.2331580000
C                 -2.5680240000      1.3467030000      0.3266720000
C                 -1.3911730000      0.5697990000      0.1818790000
C                 -0.0950690000      1.2419610000      0.2987650000
O                 -0.0176550000      2.4687500000      0.6355310000
C                  1.0341220000      0.4045130000      0.0236270000
H                  4.4745590000      0.5200960000      0.0360190000
H                  4.1954180000     -1.9754660000      0.0458950000
H                  1.8783920000     -2.9233140000     -0.1634860000
H                 -2.9206900000     -2.4514310000     -0.3217820000
H                 -4.9682080000     -1.0406840000     -0.0743640000
H                 -4.7112160000      1.4229020000      0.3420010000
H                 -2.4205710000      2.4053230000      0.5151250000
$end

$rem
   BASIS  =  6-311++G(d,p)
   GUI  =  2
   JOB_TYPE  =  SP
   METHOD  =  B3LYP
   SCF_CONVERGENCE  = 8
   SOLVENT_METHOD = sm12
$end

$smx
   solvent dimethylformamide
   charges CM5
$end





