%chk=300-an.chk
%nproc=24
%mem=825GB
#P UB3LYP/6-311++G(d,p) nosym opt freq SCF=YQC Int=Acc2E=11

Reduced

-2 1
 C                  0.05862000    4.24444700    0.72781500
 C                 -1.05020800    4.23834600   -0.09656300
 C                 -1.03543700    3.48915800   -1.29629300
 C                  1.22388700    3.51102800    0.39837100
 C                  1.23970400    2.74844400   -0.81969000
 C                  0.09543800    2.76293600   -1.63691700
 C                  2.37346500    3.52446700    1.26208200
 C                  3.49930600    2.74427400    0.82914200
 C                  3.55470200    2.00205500   -0.34057900
 C                  2.41505800    1.96143100   -1.22545200
 O                  2.47556800    4.16877400    2.37322000
 O                  2.42328500    1.28726000   -2.30062000
 O                  4.55864300    2.80183100    1.69905400
 C                  4.78778500    1.22173600   -0.71728700
 C                  4.73301100   -0.26067300   -0.29713800
 C                  5.97355000   -1.05330000   -0.72582600
 C                  5.94666100   -2.53026500   -0.31279100
 C                  7.19040100   -3.31564600   -0.74760300
 C                  7.17566800   -4.79286000   -0.33496800
 C                  8.42196200   -5.56710300   -0.78082200
 C                  8.42036600   -7.04397100   -0.36610500
 C                  9.67297300   -7.79990200   -0.82617300
 C                  9.66940700   -9.26238700   -0.40696100
 H                  0.06997200    4.81155900    1.65269400
 H                 -1.93475200    4.80878200    0.17658400
 H                 -1.90671200    3.48273600   -1.94590900
 H                  0.13601000    2.17763800   -2.54962200
 H                  4.19239800    3.40227100    2.39081000
 H                  5.67082400    1.68700000   -0.26526300
 H                  4.89474800    1.26200600   -1.80715200
 H                  3.83733300   -0.70964700   -0.73941700
 H                  4.61866800   -0.31947000    0.79220700
 H                  6.87061100   -0.57937300   -0.30274400
 H                  6.08061700   -0.98741100   -1.81708900
 H                  5.05198800   -3.00593100   -0.73537500
 H                  5.83940300   -2.59830300    0.77803400
 H                  8.08463800   -2.83463600   -0.32883800
 H                  7.29462100   -3.24822700   -1.83878500
 H                  6.28154000   -5.27563300   -0.75076700
 H                  7.07733200   -4.86250800    0.75642700
 H                  9.31576600   -5.07987400   -0.36970800
 H                  8.51644300   -5.50056300   -1.87252000
 H                  7.52630700   -7.53224400   -0.77501400
 H                  8.33134800   -7.11141300    0.72595900
 H                 10.56958500   -7.32156300   -0.41695800
 H                  9.76010300   -7.74942600   -1.91705900
 H                  8.79997600   -9.78443500   -0.82837000
 H                  9.62030000   -9.35192400    0.68644900
 O                 10.87346600   -9.86151200   -0.88780700
 C                 11.10574700  -11.18608600   -0.62940700
 C                 10.23914200  -12.02489500    0.07626800
 C                 12.30682100  -11.70659100   -1.12106000
 C                 10.58401500  -13.36313000    0.28213700
 H                  9.30176400  -11.65477500    0.47097800
 C                 12.62642400  -13.04262300   -0.91145800
 H                 12.97483000  -11.04927400   -1.66618800
 C                 11.77585700  -13.90523800   -0.20596000
 H                  9.89322800  -13.99061800    0.83649900
 H                 13.56263400  -13.42805700   -1.30551300
 C                 12.15067600  -15.36017800    0.01068100
 C                 12.42799200  -15.68913800    1.50586500
 H                 11.73734300  -15.12224200    2.13895000
 H                 13.43369600  -15.33320700    1.75829200
 C                 12.30300300  -17.19597000    1.82862900
 H                 11.28039700  -17.42466700    2.15175500
 H                 12.95029900  -17.45203400    2.67626400
 C                 12.64185900  -18.06259400    0.61254000
 H                 12.63618600  -19.12611800    0.88050800
 H                 13.66807000  -17.84165700    0.29344600
 C                 11.66083500  -17.80075800   -0.55122700
 H                 10.81847900  -18.49912400   -0.49093400
 H                 12.16268900  -18.01325600   -1.50299900
 C                 11.11755900  -16.35254400   -0.56276800
 H                 10.84509500  -16.06083300   -1.58298400
 H                 10.19679200  -16.29313300    0.02907100
 H                 13.08277200  -15.52637500   -0.54185600








































