$molecule
-1 2
C                  2.0319030000      3.8977990000      5.6069780000
C                  2.8432840000      3.3596440000      4.5178840000
C                  2.4070000000      2.4004270000      3.6567880000
C                  1.0766920000      1.8241500000      3.7546710000
C                  0.2660680000      2.3348010000      4.8289430000
C                  0.6986010000      3.2954400000      5.7325360000
O                  2.4665010000      4.8239020000      6.3261340000
O                  0.6656690000      0.9344170000      2.9542160000
H                  3.8360620000      3.7914310000      4.4258610000
H                  3.0416260000      2.0300330000      2.8556800000
H                 -0.7265130000      1.9117230000      4.9253830000
C                 -0.1823360000      3.6945420000      6.8471450000
O                  0.1367930000      4.1187070000      7.9354090000
O                 -1.5188070000      3.5046660000      6.5378290000
C                 -2.4307840000      3.7877130000      7.5949400000
H                 -3.4234780000      3.5856290000      7.1911210000
H                 -2.3568830000      4.8314050000      7.9114990000
H                 -2.2403760000      3.1514220000      8.4638230000
$end
$rem
   MAX_SCF_CYCLES=200
   BASIS  =  6-311++G(d,p)
   GUI  =  2
   JOB_TYPE  =  SP
   METHOD  =  B3LYP
   SOLVENT_METHOD = COSMO
$end
$solvent
   dielectric 37.219
   opticaldielectric 1.43
$end





