$molecule
-1 2
N                 -2.9464940000     -1.8443350000     -0.3018860000
C                 -2.5485220000     -0.5290670000     -0.1350480000
C                 -3.5046240000      0.4810400000     -0.0131900000
C                 -3.1221710000      1.8077570000      0.2229290000
C                 -1.7879560000      2.1440020000      0.3449150000
C                 -0.7897110000      1.1579180000      0.2141860000
C                  0.6111680000      1.6006190000      0.3414440000
O                  0.8689200000      2.8023160000      0.5688880000
C                  1.6489440000      0.5742440000      0.1833930000
C                  3.0450110000      0.8258650000      0.2901360000
Cl                 3.7095790000      2.4283170000      0.6603540000
C                  3.9953320000     -0.1620460000      0.1188170000
C                  3.5973280000     -1.4785970000     -0.1738620000
C                  2.2575510000     -1.7745730000     -0.2841990000
C                  1.2723530000     -0.7808170000     -0.1094960000
C                 -0.1240010000     -1.2038740000     -0.2395320000
O                 -0.3871880000     -2.4137840000     -0.5256010000
C                 -1.1524090000     -0.1975830000     -0.0412830000
H                 -3.8522370000     -1.9876230000     -0.7199060000
H                 -2.1828230000     -2.4678890000     -0.5685130000
H                 -4.5568610000      0.2183440000     -0.0860480000
H                 -3.8872550000      2.5733150000      0.3166550000
H                 -1.4682560000      3.1599100000      0.5358450000
H                  5.0437290000      0.0921480000      0.2138730000
H                  4.3495630000     -2.2495390000     -0.3074080000
H                  1.9110290000     -2.7760700000     -0.5054610000
$end
$rem
   MAX_SCF_CYCLES=200
   BASIS  =  6-311++G(d,p)
   GUI  =  2
   JOB_TYPE  =  SP
   METHOD  =  B3LYP
   SOLVENT_METHOD = PCM
$end
$pcm
   theory = CPCM
$end
$solvent
   dielectric 37.219
   opticaldielectric 1.43
$end





