%chk=236-rad.chk
%nproc=8
%mem=30GB
#P UB3LYP/6-311++G(d,p) nosym opt freq

Radical

-1 2
C    -3.2713032759    0.0644017587    0.9760153465
C    -1.9309732494   -0.0035467082    0.3252067000
C    -1.8250311030   -0.2206458447   -0.9765006820
C    -0.5165519584   -0.2897136113   -1.6279985087
O    -0.4028322218   -0.4959433344   -2.8669933078
C     0.7261363191   -0.1219534876   -0.8687696158
C     1.9735270357   -0.1839619274   -1.4672207153
C     3.1401243591   -0.0254549055   -0.7484632351
C     3.0350834041    0.2008781055    0.6076327827
C     1.7754922038    0.2624261574    1.2056194608
C     0.6146268030    0.1040751636    0.4867073366
C    -0.7108599732    0.1679322419    1.1105975889
O    -0.7690966736    0.3760701482    2.3504751884
H    -4.0494530613   -0.0625907029    0.2086594281
H    -3.3641091952   -0.7550260785    1.7123347202
H    -3.4427956954    1.0144503065    1.5040836215
H    -2.7467877361   -0.3478008388   -1.5556644746
H     2.0170878582   -0.3627330126   -2.5309111792
H     4.0711232890   -0.0855428471   -1.2766352571
H     3.9452537858    0.3258798264    1.1764814147
H     1.7313390856    0.4387995907    2.2553433871


