%chk=096-rad.chk
%nproc=8
%mem=30GB
#P UB3LYP/6-311++G(d,p) nosym  opt freq SCRF=(PCM,Solvent=n,n-DiMethylFormamide)

Radical

-1 2
 C                  2.02085300    3.88158300    5.60339700
 C                  2.83480400    3.37333900    4.51069800
 C                  2.40404700    2.41634900    3.64129300
 C                  1.08356200    1.83131400    3.74649900
 C                  0.26867500    2.31751400    4.82884700
 C                  0.69985300    3.26807400    5.73547200
 O                  2.44366000    4.81531000    6.33940600
 O                  0.66995500    0.94156200    2.93816200
 H                  3.82220100    3.81306400    4.40866100
 H                  3.04311700    2.06743800    2.83548600
 H                 -0.71863800    1.88264700    4.93277300
 C                 -0.18052900    3.63469100    6.87529400
 O                  0.19092300    3.93877800    8.01164600
 O                 -1.49663700    3.57030700    6.53952800
 C                 -2.44157600    3.83154200    7.59521100
 H                 -3.42278900    3.70696000    7.14319700
 H                 -2.32354600    4.84899100    7.97008900
 H                 -2.30751400    3.12399000    8.41438100














