%chk=289-rad.chk
%nproc=8
%mem=30GB
#P UB3LYP/6-311++G(d,p) nosym opt freq

Radical

-1 2
C         -2.10824        3.06194       -0.17006
C         -3.24631        2.26722       -0.02811
C         -3.11558        0.89372        0.17266
C         -0.83619        2.47765       -0.11070
C         -0.70120        1.10950        0.08944
C         -1.84662        0.31392        0.23182
C          0.35733        3.31473       -0.26276
C          1.69643        2.66686       -0.19960
C          1.85220        1.34715       -0.00412
C          0.63449        0.48621        0.15190
O          0.29259        4.52785       -0.44170
O          0.73001       -0.72426        0.32738
H         -2.21629        4.13386       -0.32715
H         -4.23483        2.71921       -0.07450
H         -4.00177        0.27225        0.28315
H         -1.75491       -0.75990        0.38865
O          2.76642        3.52880       -0.36351
H          2.36805        4.41837       -0.48617
C          3.14926        0.56012        0.08050
C          4.48377        1.31695        0.01784
C          5.71395        0.41079        0.23328
C          6.98195        1.26690        0.29327
C          5.86171       -0.65063       -0.85794
H          3.13038       -0.17475       -0.73374
H          3.13743       -0.00570        1.02185
H          4.49187        2.08951        0.79704
H          4.57671        1.82290       -0.95128
H          5.60924       -0.10122        1.19822
H          7.86281        0.64551        0.48672
H          6.91473        2.00722        1.09747
H          7.14485        1.80235       -0.64837
H          6.78598       -1.22246       -0.72082
H          5.89107       -0.19533       -1.85357
H          5.03459       -1.36630       -0.83308








