%chk=157-rad-new.chk
%nproc=8
%mem=30GB
#P UB3LYP/6-311++G(d,p) nosym opt freq Int=Acc2E=11

Radical

-1 2
C                 -1.68719700    1.93182100   -5.17735100
 C                 -1.61611600    0.59958900   -5.56533100
 C                 -1.31455600   -0.38911200   -4.62504400
 C                 -1.45652600    2.28595800   -3.84276000
 C                 -1.15303000    1.28993500   -2.89651800
 C                 -1.08417100   -0.04587900   -3.29700800
 C                 -1.53787400    3.71151700   -3.45509500
 C                 -0.90228900    1.63344400   -1.46779100
 C                 -1.28877800    4.07030200   -2.03133500
 C                 -0.98391000    3.07350200   -1.07738400
 C                 -1.34488500    5.39294700   -1.58083900
 C                 -1.11413200    5.73805000   -0.25372900
 C                 -0.81565200    4.74402700    0.67063500
 C                 -0.75185400    3.41730600    0.25529300
 O                 -1.80531200    4.57578400   -4.29365600
 O                 -0.64016200    0.77379900   -0.64598900
 N                 -1.65435100    6.50722000   -2.49282100
 H                 -1.91948100    2.71173100   -5.89122500
 H                 -1.79510300    0.32834100   -6.59913600
 H                 -1.25978200   -1.42756300   -4.93061800
 H                 -0.84922600   -0.79711100   -2.55340400
 S                 -1.22920800    7.51938800    0.15800600
 H                 -0.63814200    5.02746100    1.70142400
 H                 -1.80812200    6.13648400   -3.44689500
 H                 -2.46212900    7.02940800   -2.09057100
 H                 -0.52126100    2.62374900    0.95510500
 O                 -2.61981400    7.81846600   -0.29762800
 O                 -0.95473500    7.64340100    1.58476000
 O                 -0.21764000    8.08606900   -0.78322400
 H                 -0.88315400    7.20396500   -2.41372200






















