$molecule
-2 1
C                 -4.0105950000     -1.0259210000      0.2419760000
C                 -2.6274870000     -0.4203500000      0.2477490000
C                 -2.4545280000      0.9972800000      0.4246250000
C                 -3.6539990000      1.8961260000      0.6065790000
C                 -1.1840990000      1.5462300000      0.4292160000
O                 -1.0052420000      2.8900630000      0.5962010000
C                 -0.0156670000      0.7202910000      0.2586710000
C                  1.2841250000      1.3239270000      0.2690480000
O                  1.4316710000      2.6265870000      0.4323920000
C                  2.4004160000      0.4530740000      0.0953140000
C                  3.7240350000      0.9724870000      0.0935110000
C                  4.8277310000      0.1651430000     -0.0712220000
C                  4.6561430000     -1.2415830000     -0.2472430000
C                  3.3882840000     -1.7797800000     -0.2508190000
C                  2.2258330000     -0.9782490000     -0.0836830000
C                  0.9304210000     -1.5755390000     -0.0933680000
O                  0.7605870000     -2.8755360000     -0.2550890000
C                 -0.1886120000     -0.6973200000      0.0816060000
C                 -1.5239520000     -1.2388320000      0.0816570000
O                 -1.6737190000     -2.5861920000     -0.0870090000
H                 -3.9392760000     -2.1046920000      0.0955460000
H                 -4.6442940000     -0.6142640000     -0.5588620000
H                 -4.5506700000     -0.8447810000      1.1842840000
H                 -4.2488990000      1.6258070000      1.4928300000
H                 -3.3248630000      2.9297570000      0.7231860000
H                 -4.3435410000      1.8525600000     -0.2507540000
H                  0.0372550000      2.9976280000      0.5550790000
H                  3.8262650000      2.0445720000      0.2292050000
H                  5.8278270000      0.5951480000     -0.0676490000
H                  5.5254430000     -1.8837490000     -0.3778200000
H                  3.2297190000     -2.8454800000     -0.3826240000
H                 -0.6863130000     -2.9244150000     -0.1840850000
$end
$rem
   MAX_SCF_CYCLES=200
   BASIS  =  6-311++G(d,p)
   GUI  =  2
   JOB_TYPE  =  SP
   METHOD  =  B3LYP
   SOLVENT_METHOD = PCM
$end
$pcm
   theory = CPCM
$end
$solvent
   dielectric 37.219
   opticaldielectric 1.43
$end






