%chk=076-rad.chk
%nproc=8
%mem=30GB
#P UB3LYP/6-311++G(d,p) nosym  opt freq

Radical

-1 2
C          0.22340        1.73869       -1.81963
C         -1.22944        1.90772       -1.60406
C         -2.06654        0.86809       -1.63124
C         -1.57446       -0.49904       -1.87540
C         -0.12687       -0.67445       -2.08067
C          0.72498        0.36043       -2.03175
O          0.95021        2.72311       -1.82910
O         -2.34104       -1.45159       -1.89201
C          3.21284        0.71461       -1.47775
C          4.46827        0.89984       -2.07191
C          3.01432        1.10137       -0.14612
C          4.05494        1.69992        0.56875
C          5.50492        1.49712       -1.35319
C          5.29618        1.89989       -0.03514
H         -1.57662        2.92044       -1.43416
H         -3.13399        0.97956       -1.48127
H          0.19990       -1.69300       -2.26714
H          4.64212        0.58023       -3.09765
H          2.06561        0.94152        0.35651
H          3.89927        2.00903        1.59957
H          6.47486        1.64529       -1.82141
H          6.10391        2.36611        0.52398
C          2.15586        0.03786       -2.27230
O          2.47289       -0.80785       -3.10675







