%chk=199.chk
%nproc=8
%mem=30GB
#P UB3LYP/6-311++G(d,p) nosym opt freq

Oxidized

0 1
O    -4.2780790855    1.0235122840   -1.6224297976
C    -3.1415353815    0.5700461321   -0.9622235224
C    -1.8853005665    0.9543616542   -1.3503324794
C    -0.7434720644    0.5021952871   -0.6913543938
C     0.5766706553    0.9382941401   -1.1398911407
O     0.6194373734    1.7272721864   -2.1325307738
C     1.7790997671    0.4825137654   -0.4716789086
C     3.0215358292    0.9252930094   -0.9346541117
C     4.1473736992    0.4809356095   -0.2867745084
C     4.0422789869   -0.3763623372    0.7873003931
C     2.8306462076   -0.8207023726    1.2546220136
C     1.7012104802   -0.3686523939    0.5967548155
C     0.3965141071   -0.8120926836    1.0557536751
O     0.2998164511   -1.5958961470    2.0377010500
C    -0.8174686743   -0.3620811241    0.3939303176
C    -2.0968339927   -0.7523132722    0.7877159200
O    -2.2684473548   -1.5926878822    1.8352881598
C    -3.2397643879   -0.2765503839    0.0988721006
O    -4.4912768598   -0.7134745126    0.5537533272
H    -4.2427010057    1.6501900878   -2.4107750356
H    -1.7553410358    1.6214759878   -2.1824076011
H     3.0589696214    1.6022835948   -1.7863504853
H     5.1282187354    0.8077713434   -0.6236050341
H     4.9252046235   -0.7326411181    1.3052297699
H     2.7064071895   -1.4907267108    2.0908238251
H    -1.7039049301   -2.0501600600    2.4563728218
H    -4.5692583880   -1.3418040840    1.3408896030


