%chk=193-an.chk
%nproc=8
%mem=30GB
#P UB3LYP/6-311++G(d,p) nosym opt freq SCF=YQC Int=Acc2E=11

Reduced

-2 1
 C                  4.53750400    5.05020400   -1.31449700
 O                  3.86727600    3.87929500   -0.94035100
 C                  4.47852900    2.66233100   -1.16420600
 C                  5.74650300    2.58722600   -1.70367800
 C                  6.37175000    1.32935800   -1.91498300
 C                  5.70036300    0.18110000   -1.57461800
 C                  4.40167200    0.21329000   -1.01898800
 C                  3.79326600   -1.07841200   -0.69288800
 O                  4.39129600   -2.15123800   -0.98548700
 C                  2.49686700   -1.01412100   -0.02700000
 C                  1.88330700   -2.17872400    0.53750800
 O                  2.61963400   -3.35337000    0.56309600
 C                  0.63514500   -2.14702500    1.13237700
 C                  0.15830400   -3.37818300    1.88611800
 C                 -1.32425600   -3.36784900    2.31425400
 O                 -2.18039400   -3.75201600    1.23375200
 C                 -1.68263300   -1.96322500    2.84539500
 C                 -1.47824700   -0.89638300    1.77326900
 O                 -2.60169000   -1.15145100    0.79766100
 C                 -2.82128200   -0.05757800   -0.03004500
 C                 -3.25472400   -0.43606200   -1.43422500
 C                 -3.75043700    0.83269800   -2.17338400
 N                 -3.35196400    0.78389800   -3.58765400
 C                 -3.30010500    2.12956000   -1.44162400
 O                 -1.91610800    2.39226400   -1.60007200
 C                 -3.84388000    2.10289800    0.01257000
 C                 -3.15275900    3.09029100    0.95137800
 O                 -3.84044600    0.77772100    0.57071900
 C                 -0.11568200   -0.92241600    1.14629300
 C                  0.42844300    0.26087800    0.61877700
 O                 -0.28382100    1.38368500    0.57369300
 C                  1.80057700    0.24709400    0.10126500
 C                  2.42360900    1.47106100   -0.26890000
 O                  1.76417400    2.66055200   -0.08240800
 C                  3.73224700    1.47485000   -0.79987700
 C                 -1.55260100   -4.38491600    3.44517000
 C                 -2.70213600   -5.36142400    3.29000200
 O                 -0.85354800   -4.39356600    4.44296700
 H                  3.86379500    5.87326400   -1.06509300
 H                  4.75589400    5.07947800   -2.39297100
 H                  5.48445200    5.18484200   -0.76856100
 H                  6.28239100    3.49031500   -1.96799500
 H                  7.37196300    1.29244300   -2.33896700
 H                  6.13232500   -0.80287900   -1.71631500
 H                  2.05864500   -4.03584600    0.94038400
 H                  0.75525500   -3.51615800    2.79841900
 H                  0.27803600   -4.29328200    1.28462000
 H                 -2.42444800   -2.93955200    0.75445900
 H                 -1.03280300   -1.74541300    3.69649500
 H                 -2.72262100   -1.94193100    3.18817700
 H                 -1.67700500    0.09475700    2.18503700
 H                 -1.90163800    0.51558700   -0.06187900
 H                 -2.39794900   -0.86754000   -1.95906500
 H                 -4.04188400   -1.19612300   -1.40141000
 H                 -4.84759700    0.84080400   -2.14880900
 H                 -2.33687000    0.86214100   -3.62366000
 H                 -3.70236900    1.61238100   -4.06432400
 H                 -3.79982200    2.97046700   -1.94496100
 H                 -1.35077600    2.02068700   -0.88445300
 H                 -4.90789000    2.36791100   -0.06235700
 H                 -2.11146700    2.80566700    1.11441000
 H                 -3.66909100    3.09352000    1.91606700
 H                 -3.17999200    4.10311000    0.53398100
 H                  0.85382600    2.38758400    0.22328800
 H                 -2.55482000   -5.97379400    2.39671000
 H                 -2.76360800   -5.98500900    4.18302200
 H                 -3.63769500   -4.81973200    3.12711400





























