$molecule
0 1
C                 -1.6745730000      2.8608340000     -0.5601910000
C                 -2.8738480000      2.1576970000     -0.5879230000
C                 -2.8526680000      0.7683330000     -0.4833410000
C                 -0.4609280000      2.1895540000     -0.3997280000
C                 -0.4352150000      0.7890430000     -0.2285750000
C                 -1.6470460000      0.0914950000     -0.3111780000
C                  0.8057520000      2.9662110000     -0.5198500000
C                  2.1155100000      2.1475070000     -0.6527060000
C                  2.0368700000      0.7315790000     -0.3503940000
C                  0.8673720000      0.0862790000     -0.0610160000
O                  0.8314420000      4.1758490000     -0.5453360000
O                  3.1565840000      2.7203590000     -0.9218640000
H                 -1.6493950000      3.9367100000     -0.6853900000
H                 -3.8127410000      2.6833170000     -0.7171570000
H                 -3.7765050000      0.2041660000     -0.5443750000
H                 -1.6476600000     -0.9890540000     -0.2667800000
H                  2.9905190000      0.2249170000     -0.2865550000
N                  0.8331970000     -1.2573700000      0.2951520000
C                  2.0241310000     -2.0638480000      0.0571290000
C                  0.1501650000     -1.6385610000      1.5390550000
H                  2.3907860000     -1.9012220000     -0.9563660000
H                  1.7526880000     -3.1160450000      0.1634470000
H                  2.8349550000     -1.8473200000      0.7683490000
H                 -0.6601090000     -0.9526790000      1.7690660000
H                  0.8564160000     -1.6225690000      2.3810010000
H                 -0.2554190000     -2.6493710000      1.4475670000
$end

$rem
   BASIS  =  6-311++G(d,p)
   GUI  =  2
   JOB_TYPE  =  SP
   METHOD  =  B3LYP
   SCF_CONVERGENCE  = 8
   SOLVENT_METHOD = sm12
$end

$smx
   solvent dimethylformamide
   charges CM5
$end





