$molecule
-2 1
C                  5.5291330000     -4.8444320000      0.8384700000
C                  6.6711390000     -4.5315510000      0.1147390000
C                  6.6491100000     -3.4906630000     -0.8124110000
C                  4.3626750000     -4.1068500000      0.6317780000
C                  4.3172820000     -3.0852580000     -0.3400830000
C                  5.4853230000     -2.7627620000     -1.0627830000
C                  3.1640700000     -4.4615480000      1.4701050000
C                  2.1565100000     -3.3736540000      1.6754360000
C                  2.0461080000     -2.4430380000      0.6209220000
C                  2.9705410000     -2.4722270000     -0.5664830000
C                  1.2945030000     -3.2677080000      2.7873470000
C                  0.3329300000     -2.2566690000      2.7942900000
C                  0.1987630000     -1.3726080000      1.7247110000
C                  1.0526780000     -1.4630720000      0.6345370000
O                  3.0362660000     -5.5843490000      1.9127830000
O                  2.6024150000     -2.0436700000     -1.6406410000
S                  1.3561470000     -4.3017190000      4.3357830000
O                  0.6092260000     -3.4567160000      5.3124850000
O                  2.7957630000     -4.4327780000      4.6535550000
O                  0.6492200000     -5.5594200000      4.0020080000
S                  5.6786310000     -1.3723880000     -2.2877160000
O                  7.1588360000     -1.1908020000     -2.3320070000
O                  5.1217630000     -1.8843930000     -3.5607930000
O                  4.9643680000     -0.2255060000     -1.6834740000
H                  5.5148150000     -5.6352450000      1.5784910000
H                  7.5919300000     -5.0821150000      0.2842570000
H                  7.5430410000     -3.1993070000     -1.3494820000
H                 -0.2905750000     -2.1694420000      3.6752610000
H                 -0.5624750000     -0.5985880000      1.7582460000
H                  0.9881670000     -0.7825920000     -0.2057060000
$end
$rem
   MAX_SCF_CYCLES=200
   BASIS  =  6-311++G(d,p)
   GUI  =  2
   JOB_TYPE  =  SP
   METHOD  =  B3LYP
   SOLVENT_METHOD = COSMO
$end
$solvent
   dielectric 37.219
   opticaldielectric 1.43
$end





