$molecule
-2 1
C                 -3.4874090000      0.1755940000      0.3745650000
O                 -2.6831290000      0.6385170000     -0.6989950000
C                 -1.3379860000      0.2874330000     -0.5851130000
C                 -0.3802750000      1.3079950000     -0.5223250000
Cl                -0.9552760000      3.0084140000     -0.5128490000
C                  1.0362420000      1.1183150000     -0.4858290000
O                  1.9179520000      2.0610070000     -0.4590090000
C                  1.3828240000     -0.2779320000     -0.4686680000
C                  0.4241960000     -1.2987050000     -0.5108010000
Cl                 0.9975140000     -2.9994630000     -0.4822080000
C                 -0.9900730000     -1.1085590000     -0.5975040000
O                 -1.8698210000     -2.0508350000     -0.6676500000
O                  2.7330870000     -0.6278600000     -0.4680870000
C                  3.4372450000     -0.1862240000      0.6820490000
H                 -3.2028770000      0.6723020000      1.3167920000
H                 -4.5223120000      0.4479330000      0.1314810000
H                 -3.3932330000     -0.9105460000      0.4738660000
H                  3.3329070000      0.8978020000      0.7936650000
H                  3.0702280000     -0.7012860000      1.5851060000
H                  4.4901960000     -0.4539020000      0.5274210000
$end

$rem
   BASIS  =  6-311++G(d,p)
   GUI  =  2
   JOB_TYPE  =  SP
   METHOD  =  B3LYP
   SCF_CONVERGENCE  = 8
   SOLVENT_METHOD = sm12
$end

$smx
   solvent dimethylformamide
   charges CM5
$end





