$molecule
0 1
C                 -4.0780180000      3.6028670000      1.5359660000
C                 -4.5614710000      3.8228500000      0.2495100000
C                 -3.9749370000      3.1828330000     -0.8321990000
C                 -2.8933290000      2.3094360000     -0.6540420000
C                 -2.3876870000      2.0727190000      0.6439070000
C                 -3.0048840000      2.7384120000      1.7272160000
C                 -2.5138020000      2.5279110000      3.1266400000
C                 -1.3801780000      1.6136130000      3.3232200000
C                 -0.7753140000      0.9682850000      2.3110060000
C                 -1.2404850000      1.1547730000      0.8917140000
O                 -3.0334110000      3.0939570000      4.0770900000
O                 -0.6640980000      0.5504620000      0.0038510000
H                 -4.5151560000      4.0877550000      2.3988780000
H                 -4.3516200000      3.3538540000     -1.8367620000
O                 -2.3307970000      1.6916270000     -1.7190830000
C                  0.3805120000      0.0358830000      2.5076100000
H                 -5.3969860000      4.4938890000      0.0865880000
H                 -1.0573410000      1.4905200000      4.3521810000
H                 -2.7918270000      1.9610530000     -2.5217910000
H                  0.6477330000     -0.0383010000      3.5623120000
H                  1.2494600000      0.3768010000      1.9383380000
H                  0.1395760000     -0.9597340000      2.1254660000
$end
$rem
   MAX_SCF_CYCLES=200
   BASIS  =  6-311++G(d,p)
   GUI  =  2
   JOB_TYPE  =  SP
   METHOD  =  B3LYP
   SOLVENT_METHOD = PCM
$end
$pcm
   theory = CPCM
$end
$solvent
   dielectric 37.219
   opticaldielectric 1.43
$end






