$molecule
0 1
O                  2.3501490000      1.6295460000      0.3519760000
C                  1.6647440000      0.4877570000      0.2210540000
C                  2.3807230000     -0.7210530000      0.2558930000
C                  1.7156400000     -1.9273720000      0.1245650000
C                  0.3255770000     -1.9707790000     -0.0446310000
C                 -0.3960100000     -0.7871000000     -0.0811790000
C                 -1.8778450000     -0.8338030000     -0.2615200000
O                 -2.4901770000     -1.8823960000     -0.3799240000
C                 -2.5997120000      0.4626270000     -0.2931480000
C                 -1.9633330000      1.6349060000     -0.1666090000
C                 -0.4984600000      1.7118930000      0.0128610000
O                  0.0472220000      2.8180770000      0.1255000000
C                  0.2612610000      0.4602430000      0.0510120000
H                  1.7029570000      2.3722870000      0.3055450000
H                  3.4549650000     -0.6760270000      0.3870880000
H                  2.2807180000     -2.8521200000      0.1532900000
H                 -0.2007780000     -2.9108550000     -0.1479540000
H                 -3.6741690000      0.3978960000     -0.4251730000
H                 -2.4834730000      2.5862740000     -0.1886440000
$end
$rem
   MAX_SCF_CYCLES=200
   BASIS  =  6-311++G(d,p)
   GUI  =  2
   JOB_TYPE  =  SP
   METHOD  =  B3LYP
   SOLVENT_METHOD = PCM
$end
$pcm
   theory = CPCM
$end
$solvent
   dielectric 37.219
   opticaldielectric 1.43
$end






