%chk=105-PCM.chk
%nproc=8
%mem=30GB
#P UB3LYP/6-311++G(d,p) SCRF=(PCM,Solvent=n,n-DiMethylFormamide)

Quinone PCM in DMF 

0 1
C                 -0.9371220000     -1.5861600000      3.6441100000
C                  0.3608830000     -1.9966680000      3.1005820000
C                  0.9145810000     -1.4548870000      1.9987530000
C                  0.1362120000     -0.3545590000      1.2882350000
C                 -1.1492280000      0.0599380000      1.8169000000
C                 -1.7059450000     -0.4924650000      2.9340170000
O                 -1.4044880000     -2.1046820000      4.6483450000
O                  0.5913900000      0.1774600000      0.2773250000
N                 -2.8793990000     -0.2146700000      3.5388990000
C                 -3.9268950000      0.7668520000      3.1879690000
C                 -5.0216420000      0.6109910000      4.2555380000
C                 -4.5224530000      0.4532390000      1.8019060000
C                 -3.3668010000      2.2012660000      3.2420150000
C                  2.2711490000     -1.8976350000      1.4471430000
C                  2.8944960000     -3.0157010000      2.3041290000
C                  2.0965120000     -2.4402210000      0.0055250000
C                  3.2502940000     -0.6957980000      1.4424070000
H                  0.8405990000     -2.7824290000      3.6692350000
H                 -1.6295270000      0.8442910000      1.2506100000
H                 -3.0375190000     -0.7871630000      4.3608890000
H                 -4.6274230000      0.8191700000      5.2544020000
H                 -5.4347940000     -0.4017930000      4.2482990000
H                 -5.8378420000      1.3097240000      4.0625960000
H                 -4.9346530000     -0.5585700000      1.7842310000
H                 -3.7807840000      0.5294600000      1.0062250000
H                 -5.3281950000      1.1566970000      1.5765930000
H                 -2.9689640000      2.4179060000      4.2363820000
H                 -4.1627460000      2.9187620000      3.0263520000
H                 -2.5682120000      2.3608190000      2.5168970000
H                  3.0761230000     -2.6927200000      3.3330570000
H                  3.8583370000     -3.2992140000      1.8742860000
H                  2.2693010000     -3.9126630000      2.3285060000
H                  1.4074680000     -3.2901290000     -0.0092220000
H                  3.0639460000     -2.7882480000     -0.3686340000
H                  1.7194590000     -1.6715020000     -0.6662540000
H                  3.3850260000     -0.3001120000      2.4536590000
H                  2.8945580000      0.1050420000      0.7970660000
H                  4.2279600000     -1.0284160000      1.0810460000





