$molecule
-1 2
C                  4.9885520000     -2.4957580000      0.2066480000
C                  5.6799570000     -1.6602160000     -0.6501530000
C                  4.9704230000     -0.8059750000     -1.5188900000
C                  3.5793920000     -2.5107440000      0.2291800000
C                  2.8631550000     -1.6501750000     -0.6459810000
C                  3.5889710000     -0.8051230000     -1.5126940000
C                  2.8894930000     -3.4192300000      1.1605730000
C                  1.4215040000     -3.3803120000      1.1284740000
C                  0.7099640000     -2.5102660000      0.2435290000
C                  1.3940960000     -1.6133890000     -0.6759670000
C                  0.7003220000     -4.2193070000      1.9892710000
C                 -0.7059190000     -2.5311540000      0.2721860000
C                 -1.3975690000     -3.3600280000      1.1224760000
O                  3.5215300000     -4.1735560000      1.9275450000
O                  0.7720270000     -0.8476720000     -1.4551970000
H                  5.5052410000     -3.1636910000      0.8861330000
H                 -2.4798970000     -3.3613380000      1.1294510000
H                  3.0189380000     -0.1587900000     -2.1698370000
H                  1.2538730000     -4.8718630000      2.6529830000
H                 -1.2253190000     -1.8644830000     -0.4061270000
C                 -0.6914200000     -4.2272770000      2.0047450000
H                  5.5115170000     -0.1485310000     -2.1930540000
C                 -1.3795750000     -5.1342740000      2.9351460000
O                 -0.8582570000     -5.9041980000      3.7192240000
O                 -2.7471630000     -5.0392810000      2.8453070000
C                 -3.4795680000     -5.8942390000      3.7230530000
H                 -4.5313460000     -5.6921380000      3.5210260000
H                 -3.2455890000     -5.6765600000      4.7678800000
H                 -3.2510750000     -6.9447370000      3.5280900000
H                  6.7657020000     -1.6606340000     -0.6552620000
$end
$rem
   MAX_SCF_CYCLES=200
   BASIS  =  6-311++G(d,p)
   GUI  =  2
   JOB_TYPE  =  SP
   METHOD  =  B3LYP
   SOLVENT_METHOD = COSMO
$end
$solvent
   dielectric 37.219
   opticaldielectric 1.43
$end





