$molecule
0 1
C                  3.9463310000      0.6252640000     -0.1079360000
O                  2.6685820000      1.2622590000     -0.1571790000
C                  1.5738630000      0.5016200000     -0.0961210000
C                  1.5380340000     -0.8475450000      0.0110160000
C                  0.2806700000     -1.5977610000      0.0714150000
O                  0.2811730000     -2.8174570000      0.1681890000
C                 -0.9980290000     -0.8229270000      0.0106600000
C                 -2.2185840000     -1.4968380000      0.0648060000
C                 -3.4117810000     -0.7825780000      0.0087030000
C                 -3.3927580000      0.6097860000     -0.1018650000
C                 -2.1802180000      1.2886340000     -0.1563810000
C                 -0.9783780000      0.5770140000     -0.1005070000
C                  0.3086530000      1.3236920000     -0.1604810000
O                  0.3612880000      2.5323740000     -0.2558100000
H                  4.0732810000      0.0817580000      0.8328930000
H                  4.6762160000      1.4288340000     -0.1726940000
H                  4.0712620000     -0.0602050000     -0.9512540000
H                  2.4349920000     -1.4510230000      0.0583710000
H                 -2.2097100000     -2.5764880000      0.1504900000
H                 -4.3584560000     -1.3092050000      0.0510030000
H                 -4.3238550000      1.1631390000     -0.1453500000
H                 -2.1425700000      2.3676520000     -0.2420640000
$end

$rem
   BASIS  =  6-311++G(d,p)
   GUI  =  2
   JOB_TYPE  =  SP
   METHOD  =  B3LYP
   SCF_CONVERGENCE  = 8
   SOLVENT_METHOD = sm12
$end

$smx
   solvent dimethylformamide
   charges CM5
$end





