%chk=223-PCM.chk
%nproc=8
%mem=30GB
#P UB3LYP/6-311++G(d,p) SCRF=(PCM,Solvent=n,n-DiMethylFormamide)

Quinone PCM in DMF 

-1 1
C                  2.7800980000      0.5335120000      0.2074580000
C                  2.7392180000     -0.6745790000      0.9064800000
C                  1.5366620000     -1.3551130000      1.0575640000
C                 -0.9076950000     -1.5894270000      0.6970470000
O                 -0.9621930000     -2.6485410000      1.3108080000
C                 -2.1493020000     -1.0049880000      0.0954360000
C                 -3.3629310000     -1.6846640000      0.2432370000
C                 -4.5287060000     -1.1643970000     -0.3055520000
C                 -4.4922480000      0.0431700000     -1.0095540000
C                 -3.2903180000      0.7240180000     -1.1608300000
C                 -2.1128330000      0.2072420000     -0.6109260000
C                 -0.8308830000      0.9656600000     -0.7918020000
O                 -0.8256380000      2.0186920000     -1.4106760000
C                  0.3978720000      0.3831470000     -0.1948040000
C                  1.6114520000      1.0575750000     -0.3429250000
H                  3.6655130000     -1.0645050000      1.3113020000
H                  1.4901800000     -2.2945880000      1.5951820000
H                 -3.3632750000     -2.6180360000      0.7928990000
H                 -5.4670840000     -1.6956940000     -0.1876990000
H                 -5.4022520000      0.4491990000     -1.4381450000
H                 -3.2341070000      1.6610860000     -1.7012770000
H                  1.6411350000      1.9873320000     -0.8968040000
C                  0.3547960000     -0.8405720000      0.5149170000
S                  4.3597770000      1.4522560000      0.0543460000
O                  5.3892150000      0.4487750000      0.4182870000
O                  4.3813950000      1.8848920000     -1.3621860000
O                  4.2022320000      2.5562650000      1.0322280000





