$molecule
-2 1
C                 -0.1245150000      1.8978820000      5.0405700000
C                  1.0520980000      1.3159870000      4.4587660000
C                  1.3776790000      1.3044810000      3.1006630000
C                  0.4836070000      1.9112730000      2.1294180000
C                 -0.6978950000      2.4754060000      2.6902670000
C                 -0.9914840000      2.4991810000      4.0621500000
O                 -0.3640840000      1.8525530000      6.3102790000
O                  0.7250010000      1.9425600000      0.8484750000
S                 -2.4775970000      3.3559230000      4.5977340000
C                 -3.3742560000      2.0386400000      5.5550920000
C                 -4.4908860000      2.6929430000      6.3673320000
C                 -3.9023850000      0.9290630000      4.6479050000
C                  2.6814650000      0.6539660000      2.5936620000
C                  3.5393490000      0.0412940000      3.7174650000
C                  3.5397710000      1.7220760000      1.8712000000
C                  2.3379240000     -0.4759260000      1.5913100000
H                  1.7126810000      0.8537220000      5.1868510000
H                 -1.3942800000      2.9292720000      1.9896510000
H                 -2.5999820000      1.6464570000      6.2215500000
H                 -4.0887010000      3.4337680000      7.0644490000
H                 -5.0412100000      1.9398390000      6.9494240000
H                 -5.2168260000      3.1964690000      5.7156270000
H                 -3.0974550000      0.5215460000      4.0322640000
H                 -4.6868910000      1.3042270000      3.9796310000
H                 -4.3268430000      0.1090580000      5.2488150000
H                  3.0013120000     -0.7468850000      4.2535400000
H                  3.8445120000      0.7945710000      4.4505610000
H                  4.4475980000     -0.4003870000      3.2845220000
H                  3.8490470000      2.4991510000      2.5799820000
H                  2.9407500000      2.1791100000      1.0802320000
H                  4.4469400000      1.2708250000      1.4383530000
H                  1.7855080000     -1.2749870000      2.0992970000
H                  3.2540370000     -0.9113090000      1.1608820000
H                  1.7151500000     -0.0630790000      0.7945190000
$end

$rem
   BASIS  =  6-311++G(d,p)
   GUI  =  2
   JOB_TYPE  =  SP
   METHOD  =  B3LYP
   SCF_CONVERGENCE  = 8
   SOLVENT_METHOD = sm12
$end

$smx
   solvent dimethylformamide
   charges CM5
$end





