$molecule
-2 1
C                  5.6179160000     -5.4006740000      1.2607230000
C                  6.5895830000     -5.2927990000      0.2830410000
C                  6.5585140000     -4.2202710000     -0.6501490000
C                  4.5570640000     -4.4745520000      1.3745400000
C                  4.5233520000     -3.3719490000      0.4459790000
C                  5.5397750000     -3.2894240000     -0.5370940000
C                  3.5470230000     -4.6496440000      2.4201760000
C                  2.5474880000     -3.6361670000      2.4243120000
C                  2.5135540000     -2.5642130000      1.5215610000
C                  3.4708810000     -2.3553260000      0.4877640000
O                  3.5766570000     -5.6302630000      3.2555200000
O                  3.4236750000     -1.3696690000     -0.3402050000
H                  5.6290410000     -6.2166930000      1.9775380000
H                  7.3850610000     -6.0347040000      0.2183520000
H                  1.7716980000     -3.7231190000      3.1856200000
H                  1.7074520000     -1.8327710000      1.5870010000
C                  7.6265910000     -4.1147960000     -1.7152250000
H                  5.4833380000     -2.4434300000     -1.2166900000
H                  8.6435970000     -4.0711250000     -1.2869940000
H                  7.4959340000     -3.2186120000     -2.3300930000
H                  7.6221250000     -4.9776960000     -2.3912250000
$end

$rem
   BASIS  =  6-311++G(d,p)
   GUI  =  2
   JOB_TYPE  =  SP
   METHOD  =  B3LYP
   SCF_CONVERGENCE  = 8
   SOLVENT_METHOD = sm12
$end

$smx
   solvent dimethylformamide
   charges CM5
$end





