%chk=013-rad.chk
%nproc=8
%mem=30GB
#P UB3LYP/genecp nosym opt freq 

Radical

-1 2
I                 -2.7979160000     -2.0528820000      0.0039920000
C                 -1.1199340000     -0.7442720000      0.0007270000
C                 -1.3190510000      0.6057140000     -0.0163020000
C                 -0.2050890000      1.5362930000     -0.0191900000
O                 -0.3714510000      2.7839410000     -0.0348410000
C                  1.1137200000      0.9305440000     -0.0029220000
C                  1.2760040000     -0.4245960000      0.0139190000
I                  3.2384270000     -1.2464600000      0.0372550000
C                  0.1864610000     -1.3959120000      0.0175190000
O                  0.3509680000     -2.6322970000      0.0329200000
H                 -2.3132210000      1.0349790000     -0.0282860000
H                  1.9610800000      1.6049480000     -0.0047900000

H C O 0
6-311++G(d,p)
****
I 0
def2TZVP
****

I 0
def2TZVP






