%chk=122.chk
%nproc=8
%mem=30GB
#P UB3LYP/6-311++G(d,p) nosym opt freq

Oxidized

0 1
Cl                -2.5228750000      2.7674230000      1.7970480000
C                 -2.4146460000      1.1959400000      1.0363020000
C                 -3.6229800000      0.5036940000      0.9439090000
C                 -3.6777140000     -0.7559270000      0.3610080000
C                 -2.5189270000     -1.3329790000     -0.1363740000
C                 -1.3070090000     -0.6480400000     -0.0486320000
C                 -0.1044090000     -1.3289160000     -0.6047050000
O                 -0.1913740000     -2.4362920000     -1.1096430000
C                  1.2071140000     -0.6259700000     -0.5312040000
C                  2.3116140000     -1.2904490000     -1.0635380000
C                  3.5624700000     -0.6923480000     -1.0282540000
C                  3.7059310000      0.5678120000     -0.4619260000
C                  2.6060650000      1.2397500000      0.0734070000
Cl                 2.9614860000      2.8150840000      0.7457290000
C                  1.3208540000      0.6557220000      0.0520810000
C                  0.1070360000      1.3410270000      0.6193600000
O                  0.1954830000      2.4374870000      1.1303520000
C                 -1.2186710000      0.6335220000      0.5392430000
H                 -4.5177360000      0.9691900000      1.3365870000
H                 -4.6248370000     -1.2787240000      0.2981430000
H                 -2.5228030000     -2.3120020000     -0.5974010000
H                  2.1612130000     -2.2706850000     -1.4966770000
H                  4.4278550000     -1.1991740000     -1.4389640000
H                  4.6746600000      1.0496550000     -0.4264510000





