$molecule
0 1
O                 -4.9304470000      0.9677020000      0.1875110000
C                 -3.7014840000      0.3869110000      0.1179480000
C                 -3.6597330000     -1.0106840000      0.0226490000
C                 -2.4381890000     -1.6575800000     -0.0513740000
C                 -1.2385300000     -0.9341840000     -0.0323890000
C                  0.0559870000     -1.6610290000     -0.1136820000
O                  0.0970790000     -2.8804020000     -0.1971700000
C                  1.2985360000     -0.8447720000     -0.0893020000
C                  2.5440510000     -1.4819380000     -0.1630240000
C                  3.7191430000     -0.7505310000     -0.1426390000
C                  3.6666350000      0.6466620000     -0.0470680000
O                  4.8535630000      1.3126410000     -0.0314750000
C                  2.4378820000      1.2975860000      0.0271990000
C                  1.2559180000      0.5564760000      0.0063510000
C                 -0.0433610000      1.2862180000      0.0877140000
O                 -0.0843960000      2.5035390000      0.1706850000
C                 -1.2904330000      0.4667220000      0.0634410000
C                 -2.5195130000      1.1228340000      0.1382360000
H                 -4.8415040000      1.9252640000      0.2494880000
H                 -4.5918650000     -1.5623120000      0.0085780000
H                 -2.3864880000     -2.7368020000     -0.1254900000
H                  2.5652470000     -2.5622390000     -0.2364340000
H                  4.6862150000     -1.2352410000     -0.1991440000
H                  4.7002880000      2.2616380000      0.0362660000
H                  2.3723610000      2.3781060000      0.1017550000
H                 -2.5269610000      2.2054140000      0.2113700000
$end
$rem
   MAX_SCF_CYCLES=200
   BASIS  =  6-311++G(d,p)
   GUI  =  2
   JOB_TYPE  =  SP
   METHOD  =  B3LYP
   SOLVENT_METHOD = PCM
$end
$pcm
   theory = CPCM
$end
$solvent
   dielectric 37.219
   opticaldielectric 1.43
$end






