$molecule
-1 2
C                  5.7258200000     -5.2348820000      1.1210680000
C                  6.6628240000     -5.1070330000      0.1161860000
C                  6.5391410000     -4.0718940000     -0.8357440000
C                  4.6398730000     -4.3458680000      1.2164740000
C                  4.5167870000     -3.3057600000      0.2589670000
C                  5.4798000000     -3.1904020000     -0.7573990000
C                  3.6630590000     -4.5164050000      2.3027600000
C                  2.5734940000     -3.5625690000      2.3327640000
C                  2.4697230000     -2.5572650000      1.3933850000
C                  3.3980780000     -2.3490090000      0.3152050000
O                  3.7723730000     -5.4411260000      3.1514060000
O                  3.2752400000     -1.4222610000     -0.5270380000
H                  5.8013800000     -6.0212250000      1.8613980000
H                  5.3624870000     -2.3881840000     -1.4751310000
Br                 8.1165540000     -6.3707780000      0.0647420000
Br                 7.8124680000     -3.8388040000     -2.2625700000
C                  1.5598180000     -3.7175320000      3.4347450000
H                  1.6408920000     -1.8552430000      1.4409170000
H                  2.0389650000     -3.6559610000      4.4175800000
H                  1.0857520000     -4.7039630000      3.3935460000
H                  0.7854430000     -2.9487630000      3.3683810000
$end
$rem
   MAX_SCF_CYCLES=200
   BASIS  =  6-311++G(d,p)
   GUI  =  2
   JOB_TYPE  =  SP
   METHOD  =  B3LYP
   SOLVENT_METHOD = PCM
$end
$pcm
   theory = CPCM
$end
$solvent
   dielectric 37.219
   opticaldielectric 1.43
$end






