$molecule
-1 2
C                  1.3106250000      4.2147690000      5.1606500000
C                  1.8119020000      3.9656080000      3.8243480000
C                  1.6023260000      2.8028510000      3.1182650000
C                  0.8831450000      1.6767120000      3.7222570000
C                  0.3607210000      1.9364650000      5.0486870000
C                  0.5140460000      3.1232270000      5.7265440000
O                  1.5953500000      5.2753780000      5.7697180000
O                  0.7476710000      0.5555860000      3.1791200000
H                  2.3821710000      4.7751780000      3.3840120000
C                 -0.1290850000      3.2225670000      7.0619530000
O                 -0.2531220000      2.3063070000      7.8528310000
O                 -0.6371160000      4.4524420000      7.3141660000
C                 -1.2355220000      4.6253350000      8.5984650000
H                 -1.5519870000      5.6672370000      8.6340450000
H                 -0.5146600000      4.4214430000      9.3937110000
H                 -2.0940550000      3.9609280000      8.7264020000
C                  2.0818870000      2.7026120000      1.7189190000
O                  3.2755140000      3.3645050000      1.5419180000
O                  1.5294880000      2.1555950000      0.7934690000
C                  3.7658810000      3.3868800000      0.2012690000
H                 -0.1873290000      1.1218440000      5.5094480000
H                  4.7057090000      3.9375380000      0.2403890000
H                  3.0606750000      3.8880560000     -0.4669940000
H                  3.9345250000      2.3734770000     -0.1705710000
$end

$rem
   BASIS  =  6-311++G(d,p)
   GUI  =  2
   JOB_TYPE  =  SP
   METHOD  =  B3LYP
   SCF_CONVERGENCE  = 8
   SOLVENT_METHOD = sm12
$end

$smx
   solvent dimethylformamide
   charges CM5
$end





