$molecule
0 1
O                  4.8779150000     -0.8658900000      0.0204230000
C                  3.6693760000     -0.2569790000      0.0587780000
C                  3.5809960000      1.1264500000      0.1256060000
C                  2.3346340000      1.7513520000      0.1650540000
C                  1.1629710000      1.0038190000      0.1383820000
C                 -0.1481380000      1.7094400000      0.1822550000
O                 -0.1868490000      2.9276600000      0.2402270000
C                 -1.3836920000      0.8702580000      0.1514550000
C                 -2.6574790000      1.4527590000      0.1886600000
O                 -2.8035210000      2.7989890000      0.2537900000
C                 -3.8011140000      0.6287000000      0.1579620000
C                 -3.7061100000     -0.7403080000      0.0921200000
C                 -2.4456080000     -1.3583440000      0.0532990000
O                 -2.4269950000     -2.6969130000     -0.0105110000
C                 -1.2826620000     -0.5558030000      0.0827590000
C                  0.0232620000     -1.2109510000      0.0415150000
O                  0.1077690000     -2.4688240000     -0.0192980000
C                  1.2363210000     -0.4065740000      0.0704160000
C                  2.4943830000     -1.0340520000      0.0306190000
O                  2.6767160000     -2.3691930000     -0.0346940000
H                  4.7363730000     -1.8225110000     -0.0239740000
H                  4.4975860000      1.7038080000      0.1461890000
H                  2.2575250000      2.8294890000      0.2171760000
H                 -3.7427430000      3.0148250000      0.2707530000
H                 -4.7818470000      1.0955290000      0.1874930000
H                 -4.5886580000     -1.3673000000      0.0688680000
H                 -1.4814490000     -2.9760640000     -0.0308210000
H                  1.7810380000     -2.7833740000     -0.0476460000
$end

$rem
   BASIS  =  6-311++G(d,p)
   GUI  =  2
   JOB_TYPE  =  SP
   METHOD  =  B3LYP
   SCF_CONVERGENCE  = 8
   SOLVENT_METHOD = sm12
$end

$smx
   solvent dimethylformamide
   charges CM5
$end





