$molecule
0 1
O                  0.0959190000      2.9134330000      0.8807940000
C                  0.0577340000      1.7533670000      0.5300940000
C                  1.2162720000      0.8256960000      0.3147210000
C                  2.5726860000      1.0655720000      0.4611840000
C                  3.4633710000      0.0196830000      0.1956910000
C                  2.9843400000     -1.2284580000     -0.2056790000
C                  1.6116430000     -1.4673730000     -0.3527670000
C                  0.7271970000     -0.4302490000     -0.0895670000
C                 -0.7533810000     -0.3631120000     -0.1505200000
C                 -1.7030690000     -1.3170030000     -0.4893060000
C                 -3.0562880000     -0.9543770000     -0.4543160000
C                 -3.4518490000      0.3330520000     -0.0888540000
C                 -2.4949980000      1.2953610000      0.2527730000
C                 -1.1584870000      0.9334370000      0.2170630000
H                  2.9249480000      2.0420840000      0.7739770000
H                  4.5306370000      0.1761350000      0.3012420000
H                  3.6876360000     -2.0287830000     -0.4076140000
H                  1.2595770000     -2.4439870000     -0.6655570000
H                 -1.4167550000     -2.3226590000     -0.7759910000
H                 -3.8098350000     -1.6888460000     -0.7163640000
H                 -4.5055650000      0.5861090000     -0.0703920000
H                 -2.7817330000      2.3009160000      0.5393900000
$end
$rem
   MAX_SCF_CYCLES=200
   BASIS  =  6-311++G(d,p)
   GUI  =  2
   JOB_TYPE  =  SP
   METHOD  =  B3LYP
   SOLVENT_METHOD = COSMO
$end
$solvent
   dielectric 37.219
   opticaldielectric 1.43
$end





