%chk=132.chk
%nproc=8
%mem=30GB
#P UB3LYP/6-311++G(d,p) nosym opt freq

Oxidized

0 1
C                  6.8889240000     -1.6345040000     -0.2572460000
C                  7.4738780000     -0.6746080000     -1.0852320000
C                  6.6552090000      0.3293400000     -1.6489240000
C                  5.2897210000      0.3286540000     -1.3600350000
C                  4.7105490000     -0.6320020000     -0.5323450000
C                  5.5240750000     -1.6310900000      0.0288050000
C                  4.9601480000     -2.6836750000      0.9203490000
C                  3.4956270000     -2.6306650000      1.1908140000
C                  2.6817320000     -1.6317800000      0.6298370000
C                  3.2457760000     -0.5789800000     -0.2618130000
C                  2.9164770000     -3.5920390000      2.0184580000
C                  1.5507280000     -3.5934250000      2.3080010000
C                  0.7333480000     -2.5886410000      1.7437650000
C                  1.3174530000     -1.6286400000      0.9158910000
O                  5.6678280000     -3.5525700000      1.4082910000
O                  2.5381780000      0.2898010000     -0.7497110000
C                  0.9879570000     -4.6645430000      3.2123240000
C                 -0.7541530000     -2.5111820000      2.0017140000
C                  8.9590310000     -0.7362560000     -1.3538790000
C                  7.2008590000      1.4089140000     -2.5555990000
H                  7.4962940000     -2.4145120000      0.1869600000
H                  4.6424640000      1.0898380000     -1.7819850000
H                  3.5639290000     -4.3525010000      2.4394860000
H                  0.7088730000     -0.8483140000      0.4720550000
H                  1.7763050000     -5.3422180000      3.5423970000
H                  0.2249570000     -5.2619630000      2.7039680000
H                  0.5210720000     -4.2354710000      4.1041830000
H                 -1.1118110000     -3.3026730000      2.6581580000
H                 -1.3116660000     -2.5787070000      1.0626130000
H                 -1.0157210000     -1.5529470000      2.4606970000
H                  9.4098900000     -1.5796550000     -0.8291810000
H                  9.4674900000      0.1740940000     -1.0218640000
H                  9.1716870000     -0.8541430000     -2.4207860000
H                  8.2719560000      1.3158730000     -2.7275260000
H                  7.0160710000      2.3995730000     -2.1286980000
H                  6.7023650000      1.3822040000     -3.5291100000





