%chk=343-an.chk
%nproc=8
%mem=30GB
#P UB3LYP/6-311++G(d,p) nosym opt freq

Reduced

-2 1
O     0.0807054876    2.9019016798    0.8766811175
C     0.0588797546    1.6910642360    0.5115372970
C     1.2147811589    0.8259132381    0.3148094623
C     2.5929902670    1.0237408823    0.4497560906
C     3.4687437707   -0.0017356709    0.1894842408
C     2.9902742393   -1.2299811313   -0.2059051708
C     1.6190558119   -1.4303718567   -0.3412376872
C     0.7309517602   -0.4058921613   -0.0819399969
C    -0.7269193163   -0.3627312513   -0.1488254488
C    -1.7205878944   -1.2601761913   -0.4730237748
C    -3.0642476669   -0.9451935078   -0.4519674532
C    -3.4529481537    0.3300059233   -0.0899632116
C    -2.4822028493    1.2575750551    0.2420285676
C    -1.1447068764    0.9199037989    0.2138170393
H     2.9219711475    2.0121141667    0.7648425366
H     4.5246756641    0.1760943675    0.3007880240
H     3.7166784602   -2.0079028428   -0.3999534789
H     1.2705270922   -2.4046003704   -0.6531753256
H    -1.4190105674   -2.2712756337   -0.7604321518
H    -3.8456589827   -1.6558551343   -0.7084127509
H    -4.5056322781    0.5778195916   -0.0731155835
H    -2.8283200290    2.2595828126    0.5242076583


