$molecule
0 1
C                 -2.2574540000      3.2351400000      4.1119890000
C                 -3.4949630000      2.6700290000      4.3809410000
C                 -3.9238420000      1.5438580000      3.6871750000
C                 -3.1131730000      0.9602760000      2.7041360000
C                 -1.8401770000      1.5260640000      2.4140790000
C                 -1.4360990000      2.6681740000      3.1364150000
C                 -0.1129070000      3.3332080000      2.9001670000
C                 -0.9353100000      0.9518460000      1.3812390000
C                  0.7816810000      2.7772350000      1.8892660000
C                  0.3898460000      1.6311390000      1.1558120000
C                  2.0533550000      3.3727560000      1.6254350000
C                  2.8763830000      2.7893350000      0.6346970000
C                  2.4657490000      1.6721660000     -0.0629940000
C                  1.2218700000      1.0841930000      0.1903830000
O                  0.1795110000      4.3315080000      3.5686230000
O                 -1.2208760000     -0.0322270000      0.7203820000
N                  2.4858590000      4.4724840000      2.2948570000
O                 -3.4942790000     -0.1308370000      2.0114900000
C                 -4.7608300000     -0.7237430000      2.2733820000
H                 -1.9053310000      4.1105600000      4.6400330000
H                 -4.1389000000      3.1047210000      5.1373800000
H                 -4.8921060000      1.1203850000      3.9134310000
H                  3.8434140000      3.2376980000      0.4304300000
H                  3.1182860000      1.2463470000     -0.8174040000
H                  0.8891220000      0.2085080000     -0.3498370000
H                  1.8834030000      4.8762970000      3.0007760000
H                  3.3859500000      4.8683670000      2.0864490000
H                 -4.8256830000     -1.5719360000      1.5946620000
H                 -5.5802270000     -0.0279000000      2.0650510000
H                 -4.8315730000     -1.0788210000      3.3067950000
$end
$rem
   MAX_SCF_CYCLES=200
   BASIS  =  6-311++G(d,p)
   GUI  =  2
   JOB_TYPE  =  SP
   METHOD  =  B3LYP
   SOLVENT_METHOD = COSMO
$end
$solvent
   dielectric 37.219
   opticaldielectric 1.43
$end





