$molecule
-1 2
C                 -2.4783930000      1.3957840000      0.3568510000
C                 -1.9795530000     -0.0608110000      0.4304450000
C                 -2.7608620000     -0.9571700000     -0.5504020000
C                 -0.4741890000     -0.1662380000      0.2352180000
C                  0.3203310000     -0.6505770000      1.2469110000
C                  1.7567560000     -0.7905900000      1.1627480000
O                  2.4496860000     -1.2426540000      2.1219670000
C                  2.3620240000     -0.3786590000     -0.0974080000
C                  1.5740120000      0.1052890000     -1.1100020000
C                  0.1359910000      0.2458140000     -1.0264490000
O                 -0.5396470000      0.7013340000     -1.9995030000
C                  3.8558920000     -0.5063680000     -0.2314690000
H                 -2.2843590000      1.8079600000     -0.6349590000
H                 -3.5559450000      1.4470150000      0.5589880000
H                 -1.9646270000      2.0186230000      1.0958230000
H                 -2.1858010000     -0.4271330000      1.4449080000
H                 -2.5777660000     -0.6361200000     -1.5773410000
H                 -2.4471480000     -2.0013430000     -0.4542620000
H                 -3.8383690000     -0.9057130000     -0.3480780000
H                 -0.1257110000     -0.9599360000      2.1901950000
H                  2.0183670000      0.4149580000     -2.0537490000
H                  4.3703940000      0.0770810000      0.5400180000
H                  4.1931490000     -0.1674970000     -1.2154940000
H                  4.1757690000     -1.5439400000     -0.0849570000
$end

$rem
   BASIS  =  6-311++G(d,p)
   GUI  =  2
   JOB_TYPE  =  SP
   METHOD  =  B3LYP
   SCF_CONVERGENCE  = 8
   SOLVENT_METHOD = sm12
$end

$smx
   solvent dimethylformamide
   charges CM5
$end





