%chk=110-rad.chk
%nproc=8
%mem=30GB
#P UB3LYP/6-311++G(d,p) nosym  opt freq

Radical

-1 2
C                 -3.91064700   -4.00979400   -1.30463400
 C                 -2.66009000   -4.71905900   -1.28245000
 C                 -1.47807500   -4.04640000   -1.54580700
 C                 -1.46246000   -2.61812400   -1.86160700
 C                 -2.72707300   -1.90052600   -1.88406400
 C                 -3.87678800   -2.58872700   -1.61487000
 O                 -5.05763400   -4.52758800   -1.07374200
 O                 -0.37533800   -2.01898800   -2.10966500
 C                 -0.13682000   -4.74107700   -1.54452700
 C                  0.32972300   -5.17182100   -2.94930800
 C                  1.71461000   -5.82836300   -2.95240800
 C                  2.19392500   -6.25071900   -4.34607900
 C                  3.58344500   -6.89871400   -4.35446500
 C                  4.06127700   -7.31959400   -5.74905600
 C                  5.45204700   -7.96446300   -5.75827500
 C                  5.92867600   -8.38437200   -7.15352800
 C                  7.31951200   -9.02847400   -7.16339900
 C                  7.79644500   -9.44808500   -8.55856200
 C                 -2.71614900   -0.43107500   -2.20407500
 C                 -2.71391800   -6.19431000   -0.95630800
 O                 -5.11349900   -2.00450400   -1.61321600
 H                 -0.15993400   -5.61920400   -0.88946900
 H                  0.60716900   -4.04529800   -1.14370500
 H                  0.34296300   -4.28342800   -3.58858400
 H                 -0.40446200   -5.86361200   -3.38200300
 H                  1.70494500   -6.70771300   -2.29289300
 H                  2.44150500   -5.12967200   -2.51761700
 H                  2.20099800   -5.37206400   -5.00395000
 H                  1.46737000   -6.94935800   -4.78219900
 H                  3.57730500   -7.77688000   -3.69484300
 H                  4.30982900   -6.19923500   -3.91997800
 H                  4.06589500   -6.44186600   -6.40855000
 H                  3.33560300   -8.01992100   -6.18339100
 H                  5.44785400   -8.84236400   -5.09871500
 H                  6.17769000   -7.26390100   -5.32449000
 H                  5.93258900   -7.50654800   -7.81292000
 H                  5.20316100   -9.08505200   -7.58735300
 H                  7.31665900   -9.90700500   -6.50455300
 H                  8.04596000   -8.32824700   -6.73009800
 C                  9.18707200  -10.09030300   -8.55798800
 H                  7.80021900   -8.57067900   -9.21693300
 H                 -2.10618500    0.12195700   -1.48093400
 H                 -3.72841700   -0.02333100   -2.19971600
 H                 -2.26121900   -0.24911200   -3.18401700
 H                 -3.75660300   -6.50662100   -0.88295500
 H                 -2.22551300   -6.41954600    0.00047500
 H                 -2.21922400   -6.80484600   -1.71995800
 H                  7.07155200  -10.14833900   -8.99163900
 H                  9.94035200   -9.40116400   -8.16256600
 H                  9.49731100  -10.37778300   -9.56699700
 H                  9.20620600  -10.99071400   -7.93537100
 H                 -5.69069900   -2.76813400   -1.38859900


