%chk=332-rad-PCM.chk
%nproc=8
%mem=30GB
#P UB3LYP/6-311++G(d,p) SCRF=(PCM,Solvent=n,n-DiMethylFormamide)

Radical PCM in DMF 

-1 2
C                  3.4627750000      2.7240000000      0.3548920000
C                  2.7733010000      1.3960090000      0.2019860000
C                  1.4049950000      1.2874100000      0.1469050000
C                  0.7214610000      0.0417300000      0.0243960000
C                  1.5517480000     -1.1157160000     -0.0455400000
C                  2.9239320000     -1.0645500000     -0.0054400000
C                  3.7718110000     -2.3028850000     -0.1049690000
C                  3.6154170000      0.2104370000      0.1249120000
O                  4.8714130000      0.2836360000      0.1685450000
C                 -0.7213780000     -0.0422740000     -0.0255720000
C                 -1.4165420000     -1.2738360000      0.1586270000
C                 -2.7855630000     -1.3812850000      0.1220940000
C                 -3.4892780000     -2.6919940000      0.3435990000
C                 -3.6154810000     -0.2102390000     -0.1243240000
O                 -4.8714920000     -0.2831030000     -0.1669720000
C                 -2.9116390000      1.0497660000     -0.3187180000
C                 -1.5400770000      1.1013300000     -0.2618230000
C                 -3.7453490000      2.2712480000     -0.5928030000
H                  4.0853520000      2.7411740000      1.2558580000
H                  2.7387180000      3.5418350000      0.4100630000
H                  4.1436040000      2.9104010000     -0.4826050000
H                  0.8218040000      2.1980890000      0.2333190000
H                  1.0855940000     -2.0875770000     -0.1684270000
H                  3.1531790000     -3.1990160000     -0.2069210000
H                  4.4530740000     -2.2439380000     -0.9605640000
H                  4.4100100000     -2.4124660000      0.7784190000
H                 -0.8446270000     -2.1710670000      0.3702830000
H                 -4.1764070000     -2.6293530000      1.1942380000
H                 -4.1074650000     -2.9555490000     -0.5213060000
H                 -2.7742770000     -3.4993230000      0.5256690000
H                 -1.0625830000      2.0594050000     -0.4378850000
H                 -3.1176140000      3.1563370000     -0.7296170000
H                 -4.3616230000      2.1327470000     -1.4876070000
H                 -4.4467920000      2.4586170000      0.2272880000





