%chk=053.chk
%nproc=8
%mem=30GB
#P UB3LYP/6-311++G(d,p) nosym opt freq

Oxidized

0 1
C          0.27259        1.43101       -0.85508
C         -1.01014        0.66803       -0.85519
C         -0.97670       -0.69148       -0.85521
C          0.33575       -1.39670       -0.85511
C          1.61844       -0.63373       -0.85512
C          1.58506        0.72575       -0.85509
O          0.25222        2.65370       -0.85502
O          0.35616       -2.61939       -0.85506
C          2.83619        1.58353       -0.85511
C          2.92828       -1.39553       -0.85520
C         -2.32003        1.42983       -0.85532
C         -2.22765       -1.54948       -0.85536
H          3.78281        1.01051       -0.85508
H          2.83754        2.22963        0.04778
H          2.83756        2.22953       -1.75808
H          2.77803       -2.49435       -0.85524
H          3.51410       -1.14036        0.05300
H          3.51398       -1.14029       -1.76345
H         -2.16975        2.52865       -0.85531
H         -2.90596        1.17468        0.05281
H         -2.90574        1.17468       -1.76359
H         -3.17438       -0.97664       -0.85542
H         -2.22887       -2.19564        0.04750
H         -2.22869       -2.19552       -1.75831






