$molecule
0 1
C                 -1.5150390000     -2.0173680000      1.4104780000
C                 -2.0964170000     -2.0593540000      0.0489870000
C                 -1.8012230000     -1.1265630000     -0.8591400000
C                 -0.8591940000     -0.0258560000     -0.5517400000
C                 -0.2372400000      0.0302860000      0.8173950000
C                 -0.5702240000     -0.8986590000      1.7573830000
O                 -1.8215600000     -2.8741680000      2.2229410000
O                 -0.5956660000      0.7989770000     -1.4110200000
H                 -2.2165720000     -1.1219340000     -1.8608020000
C                  0.5425370000     -1.9783070000      3.7370570000
C                 -0.2829350000      0.2777580000      3.9495680000
C                  0.9887690000     -1.9364950000      5.0548170000
C                  0.7910890000     -0.7932980000      5.8273950000
C                  0.1474750000      0.3115680000      5.2723250000
H                 -2.7736740000     -2.8834170000     -0.1462120000
H                  0.6858570000     -2.8774960000      3.1513660000
H                 -0.7797330000      1.1411080000      3.5235290000
H                  1.4828830000     -2.8023110000      5.4809510000
H                  1.1308700000     -0.7657960000      6.8565970000
H                 -0.0196590000      1.2014060000      5.8686290000
C                  0.7622910000      1.1092650000      1.0368770000
C                  0.4396370000      2.4520080000      0.7985030000
C                  2.0609430000      0.7925180000      1.4571900000
C                  1.3843370000      3.4531880000      1.0047760000
C                  3.0096530000      1.7928230000      1.6454110000
C                  2.6723570000      3.1274890000      1.4264230000
H                 -0.5526670000      2.7146540000      0.4543210000
H                  2.3288790000     -0.2424900000      1.6322620000
H                  1.1158560000      4.4882740000      0.8261880000
H                  4.0118630000      1.5290950000      1.9637610000
H                  3.4097850000      3.9077610000      1.5775460000
C                 -0.0861160000     -0.8651170000      3.1630570000
$end
$rem
   MAX_SCF_CYCLES=200
   BASIS  =  6-311++G(d,p)
   GUI  =  2
   JOB_TYPE  =  SP
   METHOD  =  B3LYP
   SOLVENT_METHOD = PCM
$end
$pcm
   theory = CPCM
$end
$solvent
   dielectric 37.219
   opticaldielectric 1.43
$end





