$molecule
0 1
C                 -1.6505370000      0.7864660000      1.6295100000
C                 -2.9003030000      1.0617410000      0.7802280000
C                 -2.8634130000      0.9932610000     -0.5856880000
C                 -1.6594400000      0.6621960000     -1.2942880000
C                 -0.4097990000      0.3864210000     -0.4449840000
C                 -0.4466880000      0.4549060000      0.9209320000
O                 -1.5434420000      0.5787070000     -2.5079730000
O                 -1.7667550000      0.8690730000      2.8432340000
Br                 1.1234540000      0.1074930000      1.9491680000
Br                -4.4337210000      1.3400110000     -1.6138960000
N                  0.6600740000      0.0868740000     -1.1851680000
N                 -3.9702650000      1.3609320000      1.5204270000
H                  0.5400020000      0.0734650000     -2.1897340000
H                  1.5502130000     -0.1170800000     -0.7591750000
H                 -3.8501610000      1.3744700000      2.5249880000
H                 -4.8604870000      1.5645520000      1.0944490000
$end

$rem
   BASIS  =  6-311++G(d,p)
   GUI  =  2
   JOB_TYPE  =  SP
   METHOD  =  B3LYP
   SCF_CONVERGENCE  = 8
   SOLVENT_METHOD = sm12
$end

$smx
   solvent dimethylformamide
   charges CM5
$end





