$molecule
-2 1
C                 -3.2356780000      2.9975680000      0.0196060000
O                 -1.9182260000      2.5163310000      0.0138370000
C                 -1.7121940000      1.1549160000     -0.0380470000
C                 -2.7760820000      0.2792570000     -0.0378640000
C                 -2.5543890000     -1.1203970000     -0.0762360000
C                 -1.2735670000     -1.6259920000     -0.0270030000
O                 -1.0480660000     -2.9842910000     -0.0796470000
C                 -2.1519880000     -3.8479150000     -0.1328730000
C                 -0.1235890000     -0.7610900000      0.0539740000
C                  1.2122200000     -1.3134040000      0.2460000000
O                  1.4720830000     -2.5355310000      0.4725870000
C                  2.3085650000     -0.3488120000      0.1595880000
C                  3.6376390000     -0.8159370000      0.2907660000
C                  4.7221410000      0.0360810000      0.2078740000
C                  4.5083900000      1.4205010000     -0.0118840000
C                  3.2187180000      1.8979130000     -0.1452370000
C                  2.0936940000      1.0435580000     -0.0663520000
C                  0.7582790000      1.6245250000     -0.2044550000
O                  0.6386080000      2.8688510000     -0.4275070000
C                 -0.3495120000      0.6865630000     -0.0653400000
H                 -3.1590730000      4.0868610000      0.0749250000
H                 -3.8165860000      2.6403380000      0.8852140000
H                 -3.7865460000      2.7262390000     -0.8940910000
H                 -3.7978610000      0.6360760000     -0.0282110000
H                 -3.4154580000     -1.7742940000     -0.1258550000
H                 -2.7948520000     -3.7638000000      0.7568020000
H                 -1.7414780000     -4.8603320000     -0.1770860000
H                 -2.7804400000     -3.6829540000     -1.0229300000
H                  3.7609510000     -1.8808700000      0.4580710000
H                  5.7340800000     -0.3518180000      0.3093890000
H                  5.3551220000      2.1016720000     -0.0738400000
H                  3.0150940000      2.9501840000     -0.3141740000
$end
$rem
   MAX_SCF_CYCLES=200
   BASIS  =  6-311++G(d,p)
   GUI  =  2
   JOB_TYPE  =  SP
   METHOD  =  B3LYP
   SOLVENT_METHOD = PCM
$end
$pcm
   theory = CPCM
$end
$solvent
   dielectric 37.219
   opticaldielectric 1.43
$end





