%chk=262.chk
%nproc=8
%mem=30GB
#P UB3LYP/6-311++G(d,p) nosym opt freq

Oxidized

0 1
C                  3.6677780000     -1.3649090000      0.2899640000
C                  2.5457170000     -0.5929920000     -0.3352300000
O                  2.2287500000     -0.5784870000     -1.4896440000
O                  1.8889580000      0.1525900000      0.6291020000
C                  0.7020230000      0.7748970000      0.2925240000
C                  0.7269560000      2.1631010000      0.2016670000
C                 -0.4403840000      2.8694890000     -0.0654000000
C                 -1.6391390000      2.1874060000     -0.2422670000
C                 -1.6711690000      0.7977260000     -0.1447850000
C                 -2.9878760000      0.1098790000     -0.3270410000
O                 -4.0094050000      0.7282090000     -0.5766320000
C                 -3.0142340000     -1.3614920000     -0.1864900000
C                 -1.9058450000     -2.0586830000      0.0888330000
C                 -0.5738200000     -1.4252310000      0.2588210000
O                  0.3908880000     -2.1342390000      0.4994640000
C                 -0.4966480000      0.0597890000      0.1280020000
H                  4.2262690000     -0.7419520000      0.9901100000
H                  4.3221330000     -1.7511940000     -0.4887340000
H                  3.2321350000     -2.1959290000      0.8503230000
H                  1.6733490000      2.6706500000      0.3424820000
H                 -0.4116320000      3.9503600000     -0.1381000000
H                 -2.5624170000      2.7117100000     -0.4534830000
H                 -3.9819320000     -1.8327300000     -0.3190680000
H                 -1.9104540000     -3.1379660000      0.1955840000


