%chk=341-an.chk
%nproc=8
%mem=30GB
#P UB3LYP/6-311++G(d,p) nosym opt freq

Reduced

-2 1
C    -0.3335500136   -1.9114195228    0.8616716617
C    -0.2300381617   -0.8341326132   -0.2415623452
C    -0.5493630541   -1.5763561377   -1.5321393127
C    -1.2401897252    0.1564124801    0.0942272674
C    -2.5833662797   -0.2495621149    0.1249285322
C    -3.5215241022    0.6981705448    0.4311330923
C    -3.2189690541    2.0044617825    0.7052973121
C    -1.8990055415    2.3893531677    0.6722967370
C    -0.9102288281    1.4546498948    0.3646361782
C     0.4750498310    1.9231939087    0.3626891071
O     0.7848482481    3.1260057285    0.6121152641
C     1.4899831829    0.9254114610    0.0560938389
C     2.8448131735    1.3044747266    0.0537497783
C     3.8641431227    0.4214697217   -0.2099083502
C     3.5185040527   -0.8850425628   -0.4804710380
C     2.2040953880   -1.2564020495   -0.4792581756
C     1.1475985970   -0.3656331589   -0.2118810894
H     0.5969947685   -2.5194575211    0.8538053727
H    -1.2232456725   -2.5293410785    0.6923254988
H    -0.3720058355   -1.3844278302    1.8507158749
H    -1.5556201450   -2.0229780559   -1.4384855338
H    -0.5685753983   -0.9089157320   -2.3998037651
H     0.1431921568   -2.4365490407   -1.6338836096
H    -2.8638974950   -1.2946211482   -0.0883337115
H    -4.5657607536    0.3905326142    0.4567516663
H    -3.9810672608    2.7290436223    0.9433402543
H    -1.6068557513    3.4048702543    0.8802091020
H     3.0296615369    2.3521844813    0.2766942286
H     4.8801932587    0.7886193893   -0.1931331585
H     4.3211728894   -1.6103631827   -0.6945545861
H     1.9230128660   -2.2836520290   -0.6892660912


