$molecule
0 1
C                  0.0795060000     -0.9041360000      1.4456310000
C                 -0.0725650000     -0.8068880000     -0.0488930000
C                 -0.7275940000     -1.7754970000     -0.7139630000
C                 -1.3746920000     -2.9126420000     -0.0234140000
C                 -1.2933770000     -2.9512240000      1.4572450000
C                 -0.6218390000     -2.0128640000      2.1351900000
O                  0.7834030000     -0.1265330000      2.0632440000
O                 -1.9588190000     -3.7831530000     -0.6493620000
C                  0.6148250000      0.3059100000     -0.7491970000
H                 -1.7968000000     -3.7796980000      1.9429880000
H                 -0.8451130000     -1.7544530000     -1.7918680000
H                 -0.5308860000     -2.0202420000      3.2156030000
C                  0.4068140000      1.6669970000     -0.4748020000
C                  1.1210670000      2.6720500000     -1.1163590000
C                  2.0653520000      2.3336300000     -2.0788570000
C                  2.2884580000      0.9933180000     -2.3822280000
C                  1.5765300000     -0.0027770000     -1.7189530000
N                 -0.6419670000      2.0984860000      0.4765530000
O                 -0.5523570000      3.2208840000      0.9496870000
O                 -1.5546870000      1.3138540000      0.7111150000
H                  0.9181740000      3.7026450000     -0.8598510000
H                  2.6189160000      3.1132090000     -2.5877820000
H                  3.0241220000      0.7181170000     -3.1288810000
H                  1.7803770000     -1.0450410000     -1.9326180000
$end
$rem
   MAX_SCF_CYCLES=200
   BASIS  =  6-311++G(d,p)
   GUI  =  2
   JOB_TYPE  =  SP
   METHOD  =  B3LYP
   SOLVENT_METHOD = PCM
$end
$pcm
   theory = CPCM
$end
$solvent
   dielectric 37.219
   opticaldielectric 1.43
$end





