$molecule
-1 2
C                 -1.5659660000     -1.5467150000     -0.6388920000
C                 -1.1726870000     -0.1385550000     -0.1295840000
C                 -1.5563800000     -0.0031230000      1.3641990000
C                 -2.0008850000      0.8925350000     -0.9202580000
C                  0.3429290000      0.0757560000     -0.3021370000
C                  0.8487710000      1.0824070000     -1.0815740000
C                  2.2548030000      1.3525040000     -1.2967350000
O                  2.6473060000      2.2951380000     -2.0262360000
C                  3.1589890000      0.4482840000     -0.6030400000
C                  2.6855260000     -0.5710290000      0.1859350000
Cl                 3.7858490000     -1.6585820000      1.0201860000
C                  1.2625170000     -0.8318990000      0.3938160000
O                  0.8762460000     -1.7773350000      1.1254570000
Cl                 4.8780140000      0.7291410000     -0.8278730000
H                 -1.0285870000     -2.3177020000     -0.0881060000
H                 -2.6443710000     -1.7048850000     -0.5146010000
H                 -1.3300330000     -1.6476130000     -1.7033400000
H                 -1.0190160000     -0.7349020000      1.9660970000
H                 -2.6348290000     -0.1582100000      1.4919090000
H                 -1.3132030000      0.9992410000      1.7316670000
H                 -3.0665950000      0.6953790000     -0.7628960000
H                 -1.8063210000      0.8352570000     -1.9951340000
H                 -1.7992610000      1.9164590000     -0.5925230000
H                  0.1971830000      1.7684470000     -1.6079290000
$end
$rem
   MAX_SCF_CYCLES=200
   BASIS  =  6-311++G(d,p)
   GUI  =  2
   JOB_TYPE  =  SP
   METHOD  =  B3LYP
   SOLVENT_METHOD = COSMO
$end
$solvent
   dielectric 37.219
   opticaldielectric 1.43
$end





