$molecule
-2 1
O                 -2.2685100000     -2.7182020000     -0.4062250000
C                 -2.3103970000     -1.3455610000     -0.1897610000
C                 -3.5421980000     -0.7373270000     -0.0782770000
C                 -3.6515660000      0.6664310000      0.1473470000
C                 -2.5004680000      1.4071530000      0.2622760000
C                 -1.2119930000      0.8259310000      0.1570330000
C                 -0.0660840000      1.6982540000      0.2919690000
O                 -0.1876460000      2.9540010000      0.5052000000
C                  1.2360810000      1.0608160000      0.1694010000
C                  2.4025510000      1.8634790000      0.2943220000
C                  3.6544920000      1.2943560000      0.1827370000
C                  3.8123570000     -0.0865900000     -0.0564430000
C                  2.7054930000     -0.9473390000     -0.1923880000
O                  2.8505650000     -2.2236750000     -0.4125260000
C                  1.3628940000     -0.3489590000     -0.0748970000
C                  0.2096200000     -1.1765000000     -0.2034670000
O                  0.3738670000     -2.5152960000     -0.4415460000
C                 -1.0755040000     -0.6121840000     -0.0860800000
H                 -3.1840630000     -2.9912740000     -0.5248240000
H                 -4.4407130000     -1.3520000000     -0.1587530000
H                 -4.6328920000      1.1278960000      0.2302880000
H                 -2.5236690000      2.4773260000      0.4382660000
H                  2.2594340000      2.9217010000      0.4777040000
H                  4.5433700000      1.9197710000      0.2805440000
H                  4.8006950000     -0.5325680000     -0.1434320000
H                  1.3842850000     -2.6296370000     -0.4684670000
$end
$rem
   MAX_SCF_CYCLES=200
   BASIS  =  6-311++G(d,p)
   GUI  =  2
   JOB_TYPE  =  SP
   METHOD  =  B3LYP
   SOLVENT_METHOD = PCM
$end
$pcm
   theory = CPCM
$end
$solvent
   dielectric 37.219
   opticaldielectric 1.43
$end






