%chk=240.chk
%nproc=8
%mem=30GB
#P UB3LYP/6-311++G(d,p) nosym opt freq

Oxidized

0 1
O                  2.7292080000     -2.7088700000     -1.3557980000
C                  2.2232870000     -1.7372940000     -0.8138170000
C                  0.7553520000     -1.5927520000     -0.7501110000
C                  0.1114600000     -0.5575020000     -0.1735900000
C                 -1.3998180000     -0.4896780000     -0.1553430000
C                 -1.9615870000      0.7184780000     -0.9439080000
C                 -3.4964170000      0.6879860000     -0.9747430000
C                 -4.0911720000      0.6280240000      0.4388970000
C                 -3.5267940000     -0.5587490000      1.2318530000
C                 -1.9920920000     -0.5348530000      1.2744160000
C                  0.9194080000      0.5406530000      0.4570640000
O                  0.3790970000      1.4964810000      0.9904600000
C                  2.4106460000      0.4350020000      0.4150790000
C                  3.1831130000      1.4454690000      0.9945790000
C                  4.5714100000      1.3644320000      0.9649330000
C                  5.1993230000      0.2743820000      0.3567880000
C                  4.4378660000     -0.7354980000     -0.2221700000
C                  3.0438940000     -0.6591900000     -0.1953300000
H                  0.2034050000     -2.4040190000     -1.2152340000
H                 -1.7452100000     -1.3951580000     -0.6716340000
H                 -1.6200930000      1.6445220000     -0.4745140000
H                 -1.5646340000      0.7063220000     -1.9645690000
H                 -3.8700360000      1.5687750000     -1.5068780000
H                 -3.8332320000     -0.1867060000     -1.5467830000
H                 -3.8571290000      1.5600380000      0.9686850000
H                 -5.1828740000      0.5628810000      0.3871030000
H                 -3.8651010000     -1.4961110000      0.7706590000
H                 -3.9220060000     -0.5555940000      2.2528080000
H                 -1.6166400000     -1.4200450000      1.7987370000
H                 -1.6518380000      0.3409920000      1.8326280000
H                  2.6786260000      2.2824350000      1.4612230000
H                  5.1672800000      2.1501020000      1.4153970000
H                  6.2815900000      0.2152050000      0.3358680000
H                  4.9017060000     -1.5901620000     -0.6993490000


