$molecule
0 1
Cl                 2.3036300000     -2.0604200000      0.0548880000
C                  1.0518560000     -0.8772180000      0.0239180000
C                  1.2928540000      0.4520720000      0.0020060000
Cl                 2.8808390000      1.1207340000      0.0024780000
C                  0.1648900000      1.4446470000     -0.0245980000
O                  0.3670920000      2.6401820000     -0.0444800000
C                 -1.2139150000      0.8985850000     -0.0255640000
C                 -1.4523420000     -0.4150840000     -0.0038960000
C                 -0.3535300000     -1.4104280000      0.0224910000
O                 -0.5842350000     -2.6007630000      0.0419890000
H                 -2.0044010000      1.6398340000     -0.0450010000
H                 -2.4527400000     -0.8321410000     -0.0042310000
$end
$rem
   MAX_SCF_CYCLES=200
   BASIS  =  6-311++G(d,p)
   GUI  =  2
   JOB_TYPE  =  SP
   METHOD  =  B3LYP
   SOLVENT_METHOD = PCM
$end
$pcm
   theory = CPCM
$end
$solvent
   dielectric 37.219
   opticaldielectric 1.43
$end





