$molecule
0 1
C                  2.2801830000     -0.0691360000      0.0788370000
C                  0.7898110000      0.0770140000      0.0334840000
C                  0.1498720000      1.2574710000      0.0831850000
C                 -1.3225570000      1.3666660000      0.0360270000
O                 -1.8852850000      2.4488480000      0.0819850000
C                 -2.1075370000      0.1120000000     -0.0697150000
C                 -1.4934500000     -1.0765830000     -0.1205570000
Br                -2.4670240000     -2.7001590000     -0.2551880000
C                  0.0030810000     -1.1976780000     -0.0743320000
O                  0.5626410000     -2.2725600000     -0.1213110000
H                  2.5803900000     -0.6884810000      0.9283430000
H                  2.7641170000      0.9047350000      0.1573560000
H                  2.6441330000     -0.5793100000     -0.8170800000
H                  0.6861300000      2.1973010000      0.1610130000
H                 -3.1845020000      0.2198720000     -0.1020470000
$end

$rem
   BASIS  =  6-311++G(d,p)
   GUI  =  2
   JOB_TYPE  =  SP
   METHOD  =  B3LYP
   SCF_CONVERGENCE  = 8
   SOLVENT_METHOD = sm12
$end

$smx
   solvent dimethylformamide
   charges CM5
$end





