%chk=185-rad.chk
%nproc=8
%mem=30GB
#P UB3LYP/6-311++G(d,p) nosym  opt freq

Radical

-1 2
C                  4.8915470000     -2.8649970000     -0.3571910000
C                  5.6112350000     -1.9705200000     -1.1232110000
C                  5.0140520000     -0.7616960000     -1.5454410000
C                  3.5568440000     -2.5936780000      0.0168940000
C                  2.9549620000     -1.3753470000     -0.4086530000
C                  3.7110360000     -0.4753810000     -1.1918480000
C                  2.8233790000     -3.5551150000      0.8245750000
C                  1.4585870000     -3.2296100000      1.1812570000
C                  0.8523310000     -2.0023690000      0.7526220000
C                  1.5841640000     -1.0465730000     -0.0515290000
C                  0.7022850000     -4.1411120000      1.9709490000
C                 -0.6095240000     -3.8340670000      2.3169540000
C                 -0.4924580000     -1.7224620000      1.1262280000
C                 -1.2009530000     -2.6368010000      1.8987900000
O                  3.3700860000     -4.6468320000      1.2028970000
O                  1.0502570000      0.0488700000     -0.4372850000
O                  1.2413760000     -5.3095660000      2.3938560000
H                  5.3260520000     -3.7987960000     -0.0205940000
H                  6.6364080000     -2.1942880000     -1.4022200000
H                  5.5815700000     -0.0590250000     -2.1479990000
H                  3.2298850000      0.4444070000     -1.5025600000
H                  2.1766680000     -5.3075490000      2.0272360000
O                 -1.0977590000     -0.5738770000      0.7400560000
H                 -2.2237960000     -2.3991870000      2.1695980000
H                 -1.1635290000     -4.5456560000      2.9192190000
H                 -0.4024160000     -0.0857630000      0.2039580000


