%chk=229.chk
%nproc=8
%mem=30GB
#P UB3LYP/6-311++G(d,p) nosym opt freq

Oxidized

0 1
C                  5.7795430000     -5.1345120000      1.2383460000
C                  6.7912760000     -5.0416800000      0.2879700000
C                  6.7021310000     -4.1046570000     -0.7437230000
C                  4.6702230000     -4.2885550000      1.1619550000
C                  4.5813200000     -3.3457320000      0.1233330000
C                  5.6004960000     -3.2587760000     -0.8263450000
C                  3.5995750000     -4.4098020000      2.1945450000
C                  2.4352480000     -3.4700560000      2.0538740000
C                  2.3514270000     -2.5706570000      1.0622810000
C                  3.4036780000     -2.4369930000      0.0299150000
O                  3.6557950000     -5.2154720000      3.0994290000
O                  3.2890870000     -1.6058510000     -0.8555800000
H                  5.8301660000     -5.8544050000      2.0457360000
H                  7.6505960000     -5.6993630000      0.3499220000
H                  5.5104180000     -2.5247140000     -1.6176850000
Cl                 1.1914800000     -3.6116720000      3.2550430000
H                  7.4924300000     -4.0354160000     -1.4823000000
H                  1.5079010000     -1.8975030000      0.9692250000


