$molecule
0 1
C                 -1.4289270000      2.1403070000      0.0339070000
C                 -2.7495220000      1.4662560000      0.0316490000
C                 -2.9375390000      0.1340230000      0.0333700000
C                 -1.6935120000     -0.7086130000      0.0380140000
C                 -0.3729090000     -0.0345700000      0.0401420000
C                 -0.1848650000      1.2976610000      0.0385580000
O                 -1.3956090000      3.3625150000      0.0319580000
O                 -1.7268580000     -1.9308220000      0.0401490000
C                  1.1928510000      1.9643780000      0.0411430000
C                  1.3507990000      2.8395590000     -1.2275930000
C                  1.3438700000      2.8435810000      1.3079720000
C                  2.3226010000      0.9182100000      0.0459070000
C                 -4.3152230000     -0.5327760000      0.0309800000
C                 -5.4450700000      0.5133280000      0.0263550000
C                 -4.4729050000     -1.4078210000      1.2998470000
C                 -4.4663070000     -1.4120510000     -1.2357510000
H                 -3.5756440000      2.1659210000      0.0283970000
H                  0.4532030000     -0.7342510000      0.0433330000
H                  1.2466900000      2.2349100000     -2.1334530000
H                  2.3490650000      3.2867740000     -1.2375930000
H                  0.6146880000      3.6414610000     -1.2562390000
H                  0.6074930000      3.6454500000      1.3301610000
H                  2.3419600000      3.2911130000      1.3218600000
H                  1.2350990000      2.2417370000      2.2151360000
H                  3.2867970000      1.4323790000      0.0476590000
H                  2.2882220000      0.2807700000      0.9338370000
H                  2.2930340000      0.2778250000     -0.8400780000
H                 -5.4110300000      1.1506360000     -0.8616820000
H                 -5.4152450000      1.1538340000      0.9122400000
H                 -6.4092100000     -0.0009390000      0.0249630000
H                 -4.3688770000     -0.8029960000      2.2055920000
H                 -3.7366500000     -2.2095940000      1.3285930000
H                 -5.4710690000     -1.8552720000      1.3099640000
H                 -4.3575360000     -0.8102820000     -2.1429730000
H                 -5.4643900000     -1.8595860000     -1.2496100000
H                 -3.7299050000     -2.2139050000     -1.2579350000
$end

$rem
   BASIS  =  6-311++G(d,p)
   GUI  =  2
   JOB_TYPE  =  SP
   METHOD  =  B3LYP
   SCF_CONVERGENCE  = 8
   SOLVENT_METHOD = sm12
$end

$smx
   solvent dimethylformamide
   charges CM5
$end





