$molecule
0 1
C                  5.5798660000     -4.6113140000     -1.0113040000
C                  6.4866870000     -4.0890020000     -1.9897140000
C                  6.1865270000     -2.8242370000     -2.5851190000
C                  4.4275330000     -3.9266730000     -0.6300750000
C                  4.1629590000     -2.6587810000     -1.2528370000
C                  5.0188040000     -2.1393890000     -2.1931810000
C                  3.4573810000     -4.4453560000      0.3911210000
C                  2.2560700000     -3.6059900000      0.7074750000
C                  2.0137000000     -2.3708100000      0.0896490000
C                  2.9567560000     -1.8369290000     -0.9213760000
C                  1.3490470000     -4.0871170000      1.6593710000
C                  0.2206180000     -3.3472090000      1.9875090000
C                 -0.0184450000     -2.1153270000      1.3693840000
C                  0.8744270000     -1.6293620000      0.4245270000
C                  7.6684480000     -4.7591020000     -2.4011200000
C                  8.5002340000     -4.2054130000     -3.3464040000
C                  8.2007630000     -2.9558140000     -3.9326100000
C                  7.0656000000     -2.2808100000     -3.5573760000
O                  3.6035360000     -5.5078250000      0.9672820000
O                  2.7591380000     -0.7626850000     -1.4677260000
Cl                 6.0025210000     -6.1623370000     -0.3202130000
H                  4.7762660000     -1.1800640000     -2.6343040000
H                  1.5508730000     -5.0423050000      2.1269830000
H                 -0.4767550000     -3.7269540000      2.7256270000
H                 -0.9003500000     -1.5404020000      1.6279570000
H                  0.7140860000     -0.6791170000     -0.0693160000
H                  7.9132610000     -5.7158250000     -1.9633150000
H                  9.3972380000     -4.7357510000     -3.6448260000
H                  8.8676250000     -2.5345620000     -4.6759280000
H                  6.8202870000     -1.3204910000     -3.9970410000
$end
$rem
   MAX_SCF_CYCLES=200
   BASIS  =  6-311++G(d,p)
   GUI  =  2
   JOB_TYPE  =  SP
   METHOD  =  B3LYP
   SOLVENT_METHOD = PCM
$end
$pcm
   theory = CPCM
$end
$solvent
   dielectric 37.219
   opticaldielectric 1.43
$end





