$molecule
-2 1
Cl                 3.1136260000      0.4024530000     -0.2431850000
C                  1.3505850000      0.1604930000      0.0939580000
C                  0.8003310000     -1.1300790000     -0.0323270000
Cl                 1.8693370000     -2.5590770000      0.2385070000
C                 -0.5900800000     -1.4123070000     -0.1841700000
O                 -1.0775780000     -2.5664710000     -0.2469190000
C                 -1.5241230000     -0.1982200000     -0.1206120000
O                 -2.7665560000     -0.3710970000     -0.1320750000
C                 -0.8858450000      1.0616790000      0.0821970000
C                  0.5076000000      1.2562480000      0.1511900000
Cl                 1.1783250000      2.9179980000     -0.1120290000
Cl                -1.9756230000      2.4387790000      0.4994670000
$end

$rem
   BASIS  =  6-311++G(d,p)
   GUI  =  2
   JOB_TYPE  =  SP
   METHOD  =  B3LYP
   SCF_CONVERGENCE  = 8
   SOLVENT_METHOD = sm12
$end

$smx
   solvent dimethylformamide
   charges CM5
$end





