%chk=158-an.chk
%nproc=8
%mem=30GB
#P UB3LYP/6-311++G(d,p) nosym opt freq SCRF=(PCM,Solvent=n,n-DiMethylFormamide)

Reduced

-2 1
N                 -2.5686950000      0.4598060000      2.3423210000
C                 -2.4284760000      0.2531160000      0.9603930000
C                 -3.5537950000      0.1724620000      0.1494710000
C                 -3.4314200000     -0.1125730000     -1.2338450000
C                 -2.1909140000     -0.3236820000     -1.7872790000
C                 -1.0047550000     -0.2333660000     -1.0073700000
C                  0.2613710000     -0.4440510000     -1.6843200000
O                  0.3433620000     -0.7378830000     -2.9324640000
C                  1.4201210000     -0.2866350000     -0.8441640000
C                  2.7084620000     -0.4613630000     -1.4060470000
C                  3.8515430000     -0.3137170000     -0.6639340000
Cl                 5.4446180000     -0.5434650000     -1.4449900000
C                  3.7580440000      0.0303080000      0.7185920000
Cl                 5.2321040000      0.2181300000      1.7152240000
C                  2.5290910000      0.2098980000      1.2968420000
C                  1.3240550000      0.0626700000      0.5616330000
C                  0.0727710000      0.2674990000      1.2300460000
O                  0.0337640000      0.6116310000      2.4908980000
C                 -1.1035100000      0.0831950000      0.4075480000
H                 -1.6391370000      0.6798200000      2.7506570000
H                 -3.3182980000      1.0958270000      2.5790980000
H                 -4.5368590000      0.2910030000      0.6034810000
H                 -4.3279160000     -0.1757500000     -1.8491480000
H                 -2.0608010000     -0.5566310000     -2.8381930000
H                  2.7501900000     -0.7161310000     -2.4591840000
H                  2.4350810000      0.4698810000      2.3447320000


