$molecule
0 1
C                 -2.4346470000      1.9208130000     -0.0221870000
C                 -1.3162150000      0.9166000000     -0.0006920000
C                 -1.5437490000     -0.4133320000      0.1364030000
C                 -2.9304280000     -0.9766280000      0.2763930000
C                 -0.4163080000     -1.3949710000      0.1546290000
O                 -0.6325150000     -2.5911040000      0.2782180000
C                  0.9752860000     -0.8797150000      0.0186610000
C                  2.0498290000     -1.7724000000      0.0317770000
C                  3.3504210000     -1.2953720000     -0.0946960000
C                  3.5848780000      0.0748070000     -0.2348190000
C                  2.5188180000      0.9683420000     -0.2485640000
C                  1.2105150000      0.4950150000     -0.1219970000
C                  0.0714980000      1.4556710000     -0.1375380000
O                  0.2653830000      2.6558200000     -0.2592580000
H                 -3.1357920000      1.7076890000     -0.8353120000
H                 -3.0084600000      1.8860790000      0.9095750000
H                 -2.0413070000      2.9270240000     -0.1526680000
H                 -2.8934230000     -2.0588040000      0.3847320000
H                 -3.5414250000     -0.7317720000     -0.5984490000
H                 -3.4386860000     -0.5519430000      1.1479090000
H                  1.8454570000     -2.8301970000      0.1415180000
H                  4.1834110000     -1.9891170000     -0.0843980000
H                  4.5996510000      0.4433650000     -0.3331220000
H                  2.6778080000      2.0341270000     -0.3561170000
$end

$rem
   BASIS  =  6-311++G(d,p)
   GUI  =  2
   JOB_TYPE  =  SP
   METHOD  =  B3LYP
   SCF_CONVERGENCE  = 8
   SOLVENT_METHOD = sm12
$end

$smx
   solvent dimethylformamide
   charges CM5
$end





