%chk=152.chk
%nproc=8
%mem=30GB
#P UB3LYP/6-311++G(d,p) nosym opt freq SCRF=(PCM,Solvent=n,n-DiMethylFormamide)

Oxidized

0 1
N                 -2.9606130000     -1.7872050000     -0.4844860000
C                 -2.5465470000     -0.5268860000     -0.2197590000
C                 -3.5118270000      0.5026250000     -0.0795390000
C                 -3.1348950000      1.7966970000      0.1944410000
C                 -1.7830330000      2.1353070000      0.3430220000
C                 -0.8094160000      1.1573310000      0.2093370000
C                  0.6151670000      1.5817820000      0.3857940000
O                  0.8714730000      2.7403590000      0.6909750000
C                  1.6854290000      0.5599520000      0.1881210000
C                  3.0639900000      0.8403330000      0.2691090000
Cl                 3.7181860000      2.4428390000      0.5850160000
C                  4.0210190000     -0.1569070000      0.0916250000
C                  3.6240230000     -1.4629560000     -0.1710960000
C                  2.2740550000     -1.7705460000     -0.2628190000
C                  1.3113750000     -0.7782750000     -0.0886340000
C                 -0.1232290000     -1.1941440000     -0.2180510000
O                 -0.3767060000     -2.3863760000     -0.4483710000
C                 -1.1635540000     -0.1884980000     -0.0756420000
H                 -3.9414620000     -1.9899090000     -0.5774810000
H                 -2.2709230000     -2.5220050000     -0.5796090000
H                 -4.5611530000      0.2480180000     -0.1913220000
H                 -3.8960340000      2.5645050000      0.2960550000
H                 -1.4852820000      3.1523570000      0.5622960000
H                  5.0699500000      0.0976280000      0.1588700000
H                  4.3751930000     -2.2335510000     -0.3071620000
H                  1.9448130000     -2.7804760000     -0.4706910000





