%chk=297-rad.chk
%nproc=8
%mem=30GB
#P UB3LYP/6-311++G(d,p) nosym  opt freq

Radical

-1 2
C                 -0.8509060000      2.7715400000      0.3607970000
C                 -1.5163860000      2.9002790000     -0.8439080000
C                 -1.0012380000      2.2910330000     -2.0042960000
C                  0.3487970000      2.0318550000      0.4459310000
C                  0.8697470000      1.4167700000     -0.7239250000
C                  0.1748040000      1.5611260000     -1.9359930000
C                  1.0422620000      1.8967660000      1.7089600000
C                  2.2641860000      1.1192350000      1.7137740000
C                  2.7943430000      0.5124500000      0.5829580000
C                  2.1276940000      0.6241660000     -0.7047330000
O                  0.6592770000      2.4039620000      2.8126130000
O                  2.5563320000      0.0909430000     -1.7460210000
O                  2.8433410000      1.0402600000      2.9298250000
H                 -1.2280830000      3.2307230000      1.2673180000
H                 -2.4383260000      3.4719490000     -0.8961910000
H                 -1.5252310000      2.3928450000     -2.9496410000
H                  0.5946670000      1.0802100000     -2.8119120000
H                  2.2235780000      1.5657170000      3.4857540000
S                  4.3649200000     -0.3215790000      0.6761580000
C                  3.9596310000     -2.0558930000      0.7851390000
C                  2.6549520000     -2.5566130000      0.8211690000
C                  5.0244420000     -2.9651940000      0.8504660000
C                  2.4301890000     -3.9272440000      0.9177900000
C                  4.7854500000     -4.3324750000      0.9477330000
C                  3.4838230000     -4.8446510000      0.9803220000
C                  3.2261410000     -6.3319440000      1.0462750000
H                  1.8198110000     -1.8690890000      0.7734810000
H                  6.0456220000     -2.5977350000      0.8273820000
H                  1.4055230000     -4.2885420000      0.9436820000
H                  5.6306030000     -5.0138970000      1.0004400000
H                  4.0552320000     -6.8592900000      1.5269720000
H                  3.1011460000     -6.7645340000      0.0459270000
H                  2.3159190000     -6.5546890000      1.6107530000


