$molecule
-1 2
C                  3.7130260000      2.2247790000     -0.4577410000
O                  2.3683140000      1.8137190000     -0.3760710000
C                  2.0892050000      0.4831960000     -0.2391580000
C                  3.1006510000     -0.4670170000     -0.1792070000
C                  2.7859640000     -1.8340770000     -0.0376500000
C                  1.4756660000     -2.2362420000      0.0422640000
C                  0.4231840000     -1.2937850000     -0.0155060000
C                 -0.9405730000     -1.8197440000      0.0785510000
O                 -1.1683690000     -3.0515540000      0.2049300000
C                 -2.0214020000     -0.8425150000      0.0186520000
C                 -3.3628170000     -1.2795730000      0.1040550000
C                 -4.4094200000     -0.3816910000      0.0506300000
C                 -4.1445930000      0.9979970000     -0.0916660000
C                 -2.8395280000      1.4431250000     -0.1766970000
C                 -1.7531010000      0.5437610000     -0.1242780000
C                 -0.3841370000      1.0875930000     -0.2207860000
O                 -0.2160200000      2.3208220000     -0.3464570000
C                  0.7076650000      0.1052920000     -0.1596420000
H                  4.2243630000      1.7942820000     -1.3294060000
H                  4.2798730000      1.9655930000      0.4467370000
H                  3.6822210000      3.3101350000     -0.5614720000
H                  4.1384420000     -0.1692400000     -0.2401760000
H                  3.5910680000     -2.5617160000      0.0071110000
H                  1.1999150000     -3.2775680000      0.1514190000
H                 -3.5324830000     -2.3446140000      0.2127460000
H                 -5.4348990000     -0.7337640000      0.1176860000
H                 -4.9662860000      1.7071120000     -0.1340690000
H                 -2.6059310000      2.4956910000     -0.2863140000
$end
$rem
   MAX_SCF_CYCLES=200
   BASIS  =  6-311++G(d,p)
   GUI  =  2
   JOB_TYPE  =  SP
   METHOD  =  B3LYP
   SOLVENT_METHOD = PCM
$end
$pcm
   theory = CPCM
$end
$solvent
   dielectric 37.219
   opticaldielectric 1.43
$end





