$molecule
0 1
N                 -2.9519990000     -1.7958310000     -0.4675520000
C                 -2.5472220000     -0.5283080000     -0.2007530000
C                 -3.5120800000      0.4927590000     -0.0341690000
C                 -3.1348960000      1.7911090000      0.2378480000
C                 -1.7841600000      2.1365330000      0.3570760000
C                 -0.8121980000      1.1598720000      0.1994980000
C                  0.6178590000      1.5946570000      0.3391100000
O                  0.8732130000      2.7604650000      0.5793310000
C                  1.6856550000      0.5603600000      0.1744340000
C                  3.0634380000      0.8407280000      0.2824030000
Cl                 3.7069270000      2.4323830000      0.6228800000
C                  4.0150260000     -0.1651340000      0.1188640000
C                  3.6196770000     -1.4685620000     -0.1549830000
C                  2.2702780000     -1.7732880000     -0.2667290000
C                  1.3105680000     -0.7743850000     -0.1047800000
C                 -0.1242070000     -1.1908260000     -0.2415730000
O                 -0.3764700000     -2.3757110000     -0.4864920000
C                 -1.1661830000     -0.1829340000     -0.0804550000
H                 -3.9317890000     -2.0067560000     -0.5457740000
H                 -2.2492760000     -2.5146940000     -0.5839270000
H                 -4.5625700000      0.2358980000     -0.1246100000
H                 -3.8972810000      2.5524240000      0.3604560000
H                 -1.4770100000      3.1511970000      0.5700370000
H                  5.0634500000      0.0883790000      0.2090310000
H                  4.3689990000     -2.2416570000     -0.2800260000
H                  1.9322520000     -2.7786780000     -0.4791450000
$end
$rem
   MAX_SCF_CYCLES=200
   BASIS  =  6-311++G(d,p)
   GUI  =  2
   JOB_TYPE  =  SP
   METHOD  =  B3LYP
   SOLVENT_METHOD = PCM
$end
$pcm
   theory = CPCM
$end
$solvent
   dielectric 37.219
   opticaldielectric 1.43
$end





