$molecule
-1 2
C                 -3.3667910000      3.6844270000      0.0365830000
C                 -4.5752810000      3.0176410000      0.0577410000
C                 -4.5999090000      1.6056520000      0.0817270000
C                 -2.1421270000      2.9808910000      0.0383840000
C                 -2.1667060000      1.5556330000      0.0626140000
C                 -3.4157320000      0.8963450000      0.0839670000
C                 -0.8867690000      3.7356340000      0.0153540000
C                  0.3371190000      2.9336950000      0.0189100000
C                  0.3145350000      1.5110480000      0.0430850000
C                 -0.9386070000      0.7572050000      0.0659940000
C                  1.5859230000      3.5908670000     -0.0023550000
C                  2.7501920000      2.8624830000      0.0004510000
C                  2.7729080000      1.4443810000      0.0242290000
C                  1.5400810000      0.8134090000      0.0449140000
O                 -0.8603650000      4.9903300000     -0.0059080000
O                 -0.9591050000     -0.4988660000      0.0874840000
Br                 4.4333740000      3.8406280000     -0.0301770000
C                  4.0514280000      0.6473870000      0.0270470000
H                 -3.3175340000      4.7671310000      0.0179350000
H                 -5.5063820000      3.5765600000      0.0559650000
H                 -5.5500780000      1.0799900000      0.0983730000
H                 -3.4047620000     -0.1874340000      0.1021170000
H                  1.5865210000      4.6730260000     -0.0206230000
H                  1.4872120000     -0.2699940000      0.0636870000
H                  4.6749440000      0.8863800000      0.8949550000
H                  4.6577470000      0.8527320000     -0.8614900000
H                  3.8272040000     -0.4209310000      0.0495970000
$end
$rem
   MAX_SCF_CYCLES=200
   BASIS  =  6-311++G(d,p)
   GUI  =  2
   JOB_TYPE  =  SP
   METHOD  =  B3LYP
   SOLVENT_METHOD = PCM
$end
$pcm
   theory = CPCM
$end
$solvent
   dielectric 37.219
   opticaldielectric 1.43
$end





