$molecule
0 1
C                 -0.7843740000      2.8426190000     -0.6035500000
C                 -2.1385610000      2.5124030000     -0.6862690000
C                 -2.5949140000      1.2704640000     -0.2612960000
C                  0.1156370000      1.8967890000     -0.0938060000
C                 -0.3438230000      0.6305760000      0.3213610000
C                 -1.7062200000      0.3149300000      0.2310050000
C                  1.5598730000      2.2547450000      0.0360620000
C                  2.5190590000      1.1533810000      0.3406990000
C                  2.0696760000     -0.0270600000      0.7927470000
C                  0.6272090000     -0.3434740000      0.9026100000
O                  1.9297290000      3.4113980000     -0.0402750000
O                  0.2689810000     -1.3686140000      1.4550810000
H                 -3.6505040000      1.0334730000     -0.3231230000
H                  2.7524430000     -0.8036940000      1.1193500000
C                 -2.2850020000     -1.0097910000      0.6595640000
O                 -3.0062860000     -1.1366370000      1.6164350000
O                 -1.9834310000     -1.9792640000     -0.2132720000
C                 -2.4393380000     -3.3040500000      0.1345340000
H                 -2.8395760000      3.2291040000     -1.0989090000
H                 -2.1328640000     -3.9398540000     -0.6924470000
H                 -3.5232170000     -3.3154380000      0.2517920000
H                 -1.9653170000     -3.6224740000      1.0635020000
C                  4.0019090000      1.3924150000      0.2443340000
O                  4.7954540000      0.9984470000      1.0637570000
O                  4.3138100000      2.0382830000     -0.8803270000
C                 -0.3598070000      4.1595420000     -1.2267990000
O                 -0.0874480000      4.2127220000     -2.3958740000
O                 -0.4535830000      5.2826040000     -0.4937260000
C                 -0.5577300000      5.2259530000      0.9402070000
C                  5.7130880000      2.3265820000     -1.0859530000
H                 -0.7025890000      6.2567060000      1.2564800000
H                  0.3671910000      4.8353330000      1.3655620000
H                 -1.4108490000      4.6241260000      1.2592430000
H                  5.7592770000      2.8509760000     -2.0367400000
H                  6.2884860000      1.4009720000     -1.1228040000
H                  6.0863400000      2.9564160000     -0.2780840000
$end
$rem
   MAX_SCF_CYCLES=200
   BASIS  =  6-311++G(d,p)
   GUI  =  2
   JOB_TYPE  =  SP
   METHOD  =  B3LYP
   SOLVENT_METHOD = COSMO
$end
$solvent
   dielectric 37.219
   opticaldielectric 1.43
$end





