%chk=145-an.chk
%nproc=8
%mem=30GB
#P UB3LYP/6-311++G(d,p) nosym opt freq

Reduced

-2 1
C    -4.9809372387   -1.5424176557   -0.2969109620
C    -3.4925022169   -1.6427727610   -0.3205253596
O    -2.8486669913   -2.2433566573    0.5794022636
O    -2.7271590902   -1.0769261521   -1.3412412401
C    -1.3408874391   -1.1842918871   -1.3404552337
C    -0.6751901878   -2.2271713593   -1.9419448512
C     0.7010673843   -2.2172683814   -1.8704436275
C     1.4173479466   -1.2295725641   -1.2366947622
O     2.8010808413   -1.2066931218   -1.1569464423
C     3.4582202136   -1.8130314822   -0.0984269120
C     4.9211373202   -1.8260121233    0.0474171336
O     2.7270635183   -2.3771547603    0.7722626035
C     0.7296985834   -0.1948661137   -0.6412138169
C     1.4544100665    0.8628125619    0.0354174772
O     2.7040622250    0.8836881345    0.1075700188
C     0.7118464373    1.9549977973    0.6631644013
C     1.3708840323    2.9800274237    1.3168519153
C     0.6587579754    4.0031984783    1.9041506571
C    -0.7195726010    4.0376995352    1.8594950786
C    -1.3975184357    3.0187462225    1.2086013513
C    -0.6656504449    2.0047677229    0.6278260009
C    -1.3607722781    0.9264423314   -0.0599232820
O    -2.6104069962    0.9652352962   -0.0958457046
C    -0.6391790766   -0.1798426901   -0.6972317248
H    -5.3436443864   -0.7243630676    0.3353214935
H    -5.3404876736   -2.4975296426    0.1704023089
H    -5.4120629527   -1.4353398062   -1.2939817256
H    -1.2547203807   -2.9816467056   -2.4275795329
H     1.2637625800   -3.0378123754   -2.3418365446
H     5.3088025717   -0.9735592165    0.6339479315
H     5.4587334852   -1.8742194634   -0.9351833494
H     5.2027931348   -2.7470697070    0.6006885291
H     2.4505707643    2.9196368106    1.3315729201
H     1.2125718605    4.7780633749    2.4009413591
H    -1.2601146163    4.8562247956    2.3306887955
H    -2.4833379345    3.0413772087    1.1706628324


