%chk=071.chk
%nproc=8
%mem=30GB
#P UB3LYP/6-311++G(d,p) nosym opt freq

Oxidized

0 1
C          1.35568        1.51927       -0.44722
C          0.12889        1.11882        0.29948
C         -0.35900       -0.12725        0.17928
C          0.33389       -1.12740       -0.68118
C          1.63011       -0.76153       -1.31777
C          2.13603        0.47249       -1.12965
O          1.66985        2.70195       -0.49690
O         -0.14173       -2.24895       -0.82687
S          3.69335        0.89041       -1.77865
C          4.43309        2.04188       -0.63445
C          4.61918        3.37720       -1.00298
C          4.88777        1.57122        0.60361
C          5.50076        2.45612        1.49026
C          5.23087        4.25517       -0.10828
C          5.66758        3.79599        1.13585
O          3.50345        1.57264       -3.04650
O          4.57498       -0.26611       -1.72140
H          4.28084        3.74289       -1.96978
H          4.78728        0.52355        0.87610
H          5.36795        5.29869       -0.38152
H          5.85944        2.10244        2.45387
C         -1.61241       -0.64777        0.82859
C         -0.46269        2.21906        1.13751
H          6.14715        4.48446        1.82777
H         -2.19673        0.12414        1.33314
H         -1.36311       -1.41447        1.56979
H         -2.27670       -1.09288        0.07930
H         -0.93104        2.97343        0.49676
H          0.31598        2.70712        1.73476
H         -1.21245        1.86802        1.84945
C          2.23194       -1.86477       -2.15124
H          1.45827       -2.47470       -2.63071
H          2.84479       -2.52251       -1.52710
H          2.83660       -1.48424       -2.97902












