$molecule
-2 1
O                  0.1069160000      0.5411320000      2.6777500000
C                  0.0731640000      0.3467090000      1.3854450000
C                 -1.1829820000      0.1879050000      0.7009160000
C                 -2.4332270000      0.2080270000      1.3940780000
C                 -3.6235450000      0.0438950000      0.6956350000
C                 -3.6324410000     -0.1819180000     -0.6939120000
C                 -2.4149240000     -0.2345780000     -1.3812290000
C                 -1.2283970000     -0.0418740000     -0.6882300000
O                 -0.0708080000     -0.0260980000     -1.4524250000
C                  1.1664970000     -0.0537450000     -0.8104130000
C                  2.2755960000     -0.2509070000     -1.6072150000
C                  3.5717770000     -0.2125720000     -1.0380260000
C                  3.6921230000     -0.0276690000      0.3401330000
C                  2.5681460000      0.1337340000      1.1476450000
C                  1.2546730000      0.1679800000      0.5920670000
O                 -2.4262880000      0.4175820000      2.7422980000
H                 -4.5584830000      0.0991000000      1.2454860000
H                 -4.5610570000     -0.2983240000     -1.2415080000
O                 -2.3939940000     -0.4386290000     -2.7557500000
H                  2.1372370000     -0.3927040000     -2.6752810000
H                  4.4486390000     -0.3291100000     -1.6687240000
H                  4.6835690000     -0.0108370000      0.7909100000
H                  2.6549190000      0.2602930000      2.2203010000
H                 -1.4315200000      0.5048120000      2.9662340000
H                 -1.4627150000     -0.4193620000     -3.0143640000
$end
$rem
   MAX_SCF_CYCLES=200
   BASIS  =  6-311++G(d,p)
   GUI  =  2
   JOB_TYPE  =  SP
   METHOD  =  B3LYP
   SOLVENT_METHOD = PCM
$end
$pcm
   theory = CPCM
$end
$solvent
   dielectric 37.219
   opticaldielectric 1.43
$end






