%chk=321-an.chk
%nproc=8
%mem=30GB
#P UB3LYP/6-311++G(d,p) nosym opt freq SCRF=(PCM,Solvent=n,n-DiMethylFormamide)

Reduced

-2 1
Br                 3.7430310000     -2.1820720000      0.6164710000
C                  2.2231580000     -0.9389230000      0.2604640000
C                  0.9521700000     -1.5252340000      0.3184000000
C                 -0.1585420000     -0.7096890000      0.0785140000
C                 -1.4996800000     -1.1929520000      0.1098700000
C                 -2.5844990000     -0.3764520000     -0.1288360000
C                 -2.3744370000      1.0077530000     -0.4199150000
C                 -1.0862870000      1.5050460000     -0.4572710000
C                  0.0588430000      0.7014510000     -0.2181150000
C                  1.3807680000      1.2996860000     -0.2758300000
O                  1.5488770000      2.5286340000     -0.5356640000
C                  2.5771410000      0.4149400000     -0.0162220000
O                  3.7583090000      0.8673870000     -0.0501310000
H                  0.8330540000     -2.5794170000      0.5423900000
H                 -1.6554130000     -2.2493040000      0.3322960000
H                 -3.5941530000     -0.7835870000     -0.0957370000
H                 -3.2250780000      1.6603620000     -0.6097670000
H                 -0.8972630000      2.5523700000     -0.6758190000


