%chk=319-an.chk
%nproc=8
%mem=30GB
#P UB3LYP/6-311++G(d,p) nosym opt freq SCF=YQC

Reduced

-2 1
 C                 -0.71978500    4.18713200   -0.08547300
 C                 -1.92638300    3.39866000   -0.06981200
 C                 -1.93776300    2.01958300   -0.04479400
 C                  0.58601500    3.42916800   -0.07293100
 C                  0.51810100    1.97512600   -0.04671400
 C                 -0.69760100    1.31821700   -0.03353600
 O                  1.68832500    4.02644200   -0.08523900
 O                 -0.74443600    5.44003700   -0.10810900
 C                  1.85188900    1.25908900   -0.03535200
 C                  1.82032300   -0.27104900   -0.00829900
 C                  3.22012200   -0.89749800    0.00139900
 C                  3.20344000   -2.42960500    0.02863500
 C                 -3.27939000    1.29445400   -0.03009200
 C                 -3.25412900   -0.23776800   -0.00400700
 C                 -4.65656800   -0.85769800    0.00870300
 C                 -4.64502400   -2.38969600    0.03502900
 H                 -2.85955800    3.95926600   -0.07895600
 H                 -0.71207000    0.23459200   -0.01397300
 H                  2.43194800    1.62580300    0.82230600
 H                  2.43023500    1.59525200   -0.90657200
 H                  1.26810700   -0.64953700   -0.87853000
 H                  1.26983100   -0.61859800    0.87582000
 H                  3.77631200   -0.52362000    0.87006500
 H                  3.77453900   -0.55473300   -0.88112500
 H                  2.68482000   -2.80271800    0.91844100
 H                  4.21624100   -2.84640800    0.03505800
 H                  2.68311400   -2.83407500   -0.84635000
 H                 -3.85983300    1.61173700   -0.90790300
 H                 -3.85689200    1.64154300    0.83834200
 H                 -2.70233700   -0.58493400    0.87812100
 H                 -2.70498600   -0.61479100   -0.87547000
 H                 -5.21212100   -0.51319200   -0.87279400
 H                 -5.20954500   -0.48305600    0.87946100
 H                 -4.12838900   -2.79510700   -0.84132300
 H                 -5.65935000   -2.80209200    0.04366100
 H                 -4.12570200   -2.76476100    0.92322600











