$molecule
-1 2
C                 -0.0897200000     -0.7941340000      1.4633420000
C                 -0.1210210000     -0.7956000000     -0.0010020000
C                 -0.6620710000     -1.8610170000     -0.6936480000
C                 -1.2329520000     -3.0207850000     -0.0523650000
C                 -1.1913990000     -3.0078940000      1.3990240000
C                 -0.6520820000     -1.9697390000      2.1002270000
O                  0.4123930000      0.1481760000      2.1276760000
O                 -1.7304550000     -3.9809420000     -0.7063800000
C                  0.5468670000      0.3031100000     -0.7244200000
H                 -1.6144170000     -3.8707140000      1.9061850000
H                 -0.7004850000     -1.8506410000     -1.7790270000
H                 -0.6270160000     -1.9742160000      3.1860580000
C                  0.4456850000      1.6728530000     -0.4118040000
C                  1.2002840000      2.6510120000     -1.0561110000
C                  2.0656590000      2.2975570000     -2.0831690000
C                  2.1712680000      0.9541430000     -2.4461090000
C                  1.4381270000     -0.0120840000     -1.7690670000
N                 -0.5634960000      2.1911540000      0.5392270000
O                 -0.2698180000      3.1913010000      1.1877120000
O                 -1.6609540000      1.6549980000      0.5545290000
H                  1.0834530000      3.6813410000     -0.7478560000
H                  2.6458600000      3.0591460000     -2.5917860000
H                  2.8441180000      0.6552670000     -3.2433150000
H                  1.5690190000     -1.0583440000     -2.0176930000
$end
$rem
   MAX_SCF_CYCLES=200
   BASIS  =  6-311++G(d,p)
   GUI  =  2
   JOB_TYPE  =  SP
   METHOD  =  B3LYP
   SOLVENT_METHOD = COSMO
$end
$solvent
   dielectric 37.219
   opticaldielectric 1.43
$end





