%chk=138-rad.chk
%nproc=8
%mem=30GB
#P UB3LYP/6-311++G(d,p) nosym  opt freq

Radical

-1 2
C                  4.6963750000     -0.7094830000      0.8810070000
O                  4.2676990000      0.3488650000      0.0452660000
C                  2.9082210000      0.4962920000     -0.1489750000
C                  2.5367500000      1.5693780000     -0.9931010000
C                  1.2046010000      1.8008940000     -1.2503080000
C                  0.1894090000      0.9920280000     -0.6916180000
C                 -1.2115180000      1.2818170000     -0.9977950000
O                 -1.5479130000      2.2321900000     -1.7460930000
C                 -2.1997500000      0.3943960000     -0.3772870000
C                 -3.5722250000      0.6109550000     -0.6256540000
C                 -4.5395310000     -0.1986730000     -0.0634810000
C                 -4.1579660000     -1.2674000000      0.7782260000
C                 -2.8220150000     -1.4992110000      1.0361160000
C                 -1.8136670000     -0.6844490000      0.4724510000
C                 -0.4121210000     -0.9696160000      0.7751530000
O                 -0.0683420000     -1.9219880000      1.5255580000
C                  0.5715610000     -0.0838200000      0.1554400000
C                  1.9453620000     -0.3138820000      0.4139640000
H                  4.3884470000     -1.6853120000      0.4869250000
H                  4.3043180000     -0.6038480000      1.8995880000
H                  5.7856520000     -0.6548260000      0.9040970000
H                  3.3163330000      2.1897230000     -1.4214400000
H                  0.8941790000      2.6163260000     -1.8935630000
H                 -3.8342990000      1.4383660000     -1.2753030000
H                 -5.5906360000     -0.0158420000     -0.2666930000
H                 -4.9169650000     -1.9056120000      1.2215960000
H                 -2.5020970000     -2.3119770000      1.6781050000
H                  2.1801380000     -1.1452910000      1.0648960000


