%chk=341-an.chk
%nproc=8
%mem=30GB
#P UB3LYP/6-311++G(d,p) nosym opt freq

Reduced

-2 1
C                 -0.3201160000     -2.0018240000      0.9649360000
C                 -0.2328760000     -0.9516880000     -0.1773800000
C                 -0.5586450000     -1.6511650000     -1.5291700000
C                 -1.2793350000      0.1420450000      0.0992900000
C                 -2.6357950000     -0.1879920000      0.0900020000
C                 -3.6393130000      0.7475080000      0.3788750000
C                 -3.2687970000      2.0697170000      0.6538400000
C                 -1.9318080000      2.4281690000      0.6628060000
C                 -0.9032240000      1.4752150000      0.4213840000
C                  0.4840730000      1.9169520000      0.4764930000
O                  0.7857560000      3.1172850000      0.7635850000
C                  1.5056680000      0.9427670000      0.1159140000
C                  2.8619210000      1.3686030000      0.0550090000
C                  3.8850010000      0.4883760000     -0.2525700000
C                  3.5960440000     -0.8519890000     -0.5372710000
C                  2.2577520000     -1.2698700000     -0.5294260000
C                  1.2058850000     -0.4073410000     -0.2155620000
H                  0.3944930000     -2.8145260000      0.8063570000
H                 -1.3229600000     -2.4342300000      1.0246890000
H                 -0.0934860000     -1.5294720000      1.9251880000
H                 -1.5632540000     -2.0857630000     -1.5233450000
H                 -0.5047950000     -0.9336340000     -2.3519950000
H                  0.1452480000     -2.4624700000     -1.7401220000
H                 -2.9379940000     -1.2062180000     -0.1363810000
H                 -4.6839110000      0.4476550000      0.3741810000
H                 -4.0350870000      2.8150990000      0.8607190000
H                 -1.6171100000      3.4457550000      0.8637050000
H                  3.0558230000      2.4129400000      0.2709330000
H                  4.9165480000      0.8363050000     -0.2736290000
H                  4.3876750000     -1.5578520000     -0.7743180000
H                  2.0466180000     -2.3083570000     -0.7667400000


