%chk=136.chk
%nproc=8
%mem=30GB
#P UB3LYP/6-311++G(d,p) nosym opt freq

Oxidized

0 1
O                 -0.0495460000     -1.5122090000     -2.3217710000
C                 -0.0271820000     -0.8309900000     -1.3075750000
C                  1.2586800000     -0.4519330000     -0.6544620000
C                  2.4425530000     -0.8842260000     -1.2148790000
C                  3.6920390000     -0.5564280000     -0.6405070000
C                  4.9208920000     -0.9922580000     -1.2030940000
C                  6.1169810000     -0.6543810000     -0.6173920000
C                  6.1426720000      0.1350130000      0.5582990000
C                  4.9717040000      0.5731370000      1.1283000000
C                  3.7179680000      0.2424290000      0.5491970000
C                  2.4933070000      0.6750750000      1.1072290000
C                  1.2846220000      0.3441090000      0.5309220000
C                  0.0271080000      0.8311370000      1.1673610000
O                  0.0497730000      1.5122690000      2.1816340000
C                 -1.2587710000      0.4520530000      0.5143480000
C                 -2.4424910000      0.8842660000      1.0747810000
C                 -3.6921170000      0.5563770000      0.5003890000
C                 -4.9206490000      0.9921260000      1.0630080000
C                 -6.1171100000      0.6542110000      0.4773440000
C                 -6.1428390000     -0.1349060000     -0.6979430000
C                 -4.9717120000     -0.5730750000     -1.2681250000
C                 -3.7182230000     -0.2424720000     -0.6893210000
C                 -2.4932820000     -0.6750340000     -1.2473340000
C                 -1.2846580000     -0.3441080000     -0.6712100000
H                  2.3988120000     -1.4873150000     -2.1146890000
H                  4.8989770000     -1.5966520000     -2.1034320000
H                  7.0499590000     -0.9918080000     -1.0542700000
H                  7.0949380000      0.3925930000      1.0076360000
H                  4.9891260000      1.1777160000      2.0285910000
H                  2.4889830000      1.2802160000      2.0067210000
H                 -2.3987970000      1.4873730000      1.9746070000
H                 -4.8989890000      1.5965160000      1.9633230000
H                 -7.0497350000      0.9918840000      0.9147130000
H                 -7.0948440000     -0.3928540000     -1.1477130000
H                 -4.9892990000     -1.1776610000     -2.1684440000
H                 -2.4888490000     -1.2801870000     -2.1468470000


