%chk=229-an.chk
%nproc=8
%mem=30GB
#P UB3LYP/6-311++G(d,p) nosym opt freq

Reduced

-2 1
C                  5.7614140000     -5.1230540000      1.2394500000
C                  6.7751890000     -5.0420740000      0.3013890000
C                  6.6860200000     -4.0903440000     -0.7472950000
C                  4.6217500000     -4.2842080000      1.1972890000
C                  4.5314430000     -3.3135280000      0.1269660000
C                  5.5837860000     -3.2561400000     -0.8152470000
C                  3.6006530000     -4.4451910000      2.2370100000
C                  2.5424730000     -3.5308580000      2.0369700000
C                  2.4221360000     -2.5746250000      1.0081960000
C                  3.3961900000     -2.4024670000     -0.0046190000
O                  3.7003590000     -5.3157710000      3.1801180000
O                  3.3084910000     -1.5315040000     -0.9584210000
H                  5.7977670000     -5.8397900000      2.0547400000
H                  7.6373100000     -5.7052460000      0.3671940000
H                  5.4796820000     -2.5149940000     -1.6029290000
Cl                 1.1736330000     -3.5837570000      3.2361360000
H                  7.4786450000     -4.0180570000     -1.4913700000
H                  1.5458490000     -1.9342130000      0.9803630000


