$molecule
-2 1
C                  5.7614360000     -5.1229810000      1.2394400000
C                  6.7752340000     -5.0420630000      0.3014450000
C                  6.6861480000     -4.0902140000     -0.7472370000
C                  4.6216090000     -4.2842660000      1.1972800000
C                  4.5313740000     -3.3134250000      0.1268720000
C                  5.5838610000     -3.2561370000     -0.8152650000
C                  3.6000320000     -4.4462540000      2.2365140000
C                  2.5424130000     -3.5312760000      2.0367570000
C                  2.4222850000     -2.5746730000      1.0081720000
C                  3.3962190000     -2.4021070000     -0.0046980000
O                  3.7005340000     -5.3155630000      3.1805790000
O                  3.3080280000     -1.5317000000     -0.9588740000
H                  5.7977190000     -5.8398170000      2.0546420000
H                  7.6373080000     -5.7052910000      0.3673250000
H                  5.4797760000     -2.5149870000     -1.6029430000
Cl                 1.1737950000     -3.5833630000      3.2366170000
H                  7.4788100000     -4.0178310000     -1.4912660000
H                  1.5462070000     -1.9338730000      0.9805800000
$end
$rem
   MAX_SCF_CYCLES=200
   BASIS  =  6-311++G(d,p)
   GUI  =  2
   JOB_TYPE  =  SP
   METHOD  =  B3LYP
   SOLVENT_METHOD = COSMO
$end
$solvent
   dielectric 37.219
   opticaldielectric 1.43
$end





