%chk=079-rad-PCM.chk
%nproc=8
%mem=30GB
#P UB3LYP/6-311++G(d,p) SCRF=(PCM,Solvent=n,n-DiMethylFormamide)

Radical PCM in DMF 

-1 2
C                  1.2941720000      1.1670330000     -2.8722920000
C                 -0.0156360000      1.5133240000     -3.3841610000
C                 -1.1061240000      0.7234350000     -3.1723790000
C                 -1.0397570000     -0.5138600000     -2.4229100000
C                  0.2698380000     -0.8933840000     -1.8991590000
O                  2.2880830000      1.9281920000     -3.0201520000
O                 -2.0663750000     -1.2287550000     -2.2387100000
H                 -0.0858740000      2.4476830000     -3.9338900000
C                  1.3813810000     -0.0956090000     -2.1403750000
C                  2.7232830000     -0.4691770000     -1.6042550000
C                  3.8952420000     -0.5585060000     -2.5518440000
C                  5.1903640000     -0.5721550000     -2.0215880000
C                  3.7267770000     -0.7142790000     -3.9314300000
C                  6.2959630000     -0.7220220000     -2.8529790000
C                  6.1189030000     -0.8812050000     -4.2284900000
C                  4.8309120000     -0.8813010000     -4.7637080000
O                  2.8986570000     -0.7621720000     -0.4270620000
C                  0.3221620000     -2.1870120000     -1.1281500000
H                  5.3066280000     -0.4624490000     -0.9500000000
H                  2.7271280000     -0.7019050000     -4.3478230000
H                  7.2961820000     -0.7171850000     -2.4312950000
H                  6.9795020000     -1.0022620000     -4.8788510000
H                  4.6865690000     -1.0040460000     -5.8321160000
H                 -2.0852250000      0.9974360000     -3.5557770000
H                  0.0528490000     -2.0208320000     -0.0786540000
H                  1.3141140000     -2.6393140000     -1.1359340000
H                 -0.4153090000     -2.8804740000     -1.5368950000





