%chk=125.chk
%nproc=8
%mem=30GB
#P UB3LYP/6-311++G(d,p) nosym opt freq

Oxidized

0 1
C    -4.6341508246   -0.3946859180   -0.5269183150
C    -3.9237002619   -0.4088447400    0.7848921315
C    -2.5460271584    0.1176148578    0.7174485427
C    -2.2460304261    1.4517438711    0.9098278855
C    -0.9541513105    1.9092224789    0.8404499251
C     0.0704444586    1.0273459295    0.5740812489
C     1.4546680059    1.5011480604    0.4969600043
O     1.6895767334    2.7431477725    0.6811058249
C     2.5517092363    0.5879665320    0.2170274066
C     3.8598816578    1.0039633673    0.1387496384
C     4.9028490472    0.1331297880   -0.1278336662
C     4.5530521845   -1.2001680289   -0.3144032844
C     3.2530674075   -1.6522278071   -0.2431836654
C     2.2523600002   -0.7366897519    0.0261828461
C     0.8855797381   -1.2452690798    0.0954110935
O     0.6396414956   -2.4720243458   -0.0848943902
C    -0.2044690591   -0.3089253498    0.3784814471
C    -1.5261859566   -0.7671771488    0.4511260787
H    -4.0044366320   -0.6050381951   -1.3944982736
H    -5.4411966325   -1.1836476872   -0.4911178220
H    -5.1954286888    0.5644972814   -0.6528955842
H    -4.4926135670    0.2636529747    1.4880879966
H    -3.8675550345   -1.4326983732    1.2175969659
H    -3.0823469253    2.1047650214    1.1159087897
H    -0.7302622181    2.9519109997    0.9920072444
H     4.1122746164    2.0455304269    0.2868744071
H     5.9327825350    0.4462786518   -0.1919040009
H     5.3590848548   -1.9190587602   -0.5282166509
H     3.0418708945   -2.7052625439   -0.3979338262
H    -1.7102881701   -1.8202002837    0.2932809965


