$molecule
0 1
O                  2.5771110000      2.5232570000     -0.2079950000
C                  2.4608900000      1.2095770000      0.0174560000
C                  3.6349230000      0.4787910000      0.2615810000
C                  3.5702760000     -0.8827620000      0.5008650000
C                  2.3429290000     -1.5550980000      0.5045720000
C                  1.1719050000     -0.8500230000      0.2652700000
C                 -0.1263700000     -1.5891110000      0.2738510000
O                 -0.1729930000     -2.7893890000      0.4870560000
C                 -1.3679170000     -0.8032680000      0.0136720000
C                 -2.6024080000     -1.4584020000      0.0136570000
C                 -3.7714340000     -0.7455220000     -0.2265470000
C                 -3.7176040000      0.6298110000     -0.4691890000
C                 -2.4948700000      1.2904630000     -0.4713600000
C                 -1.3142220000      0.5802850000     -0.2304940000
C                 -0.0174350000      1.3041050000     -0.2370640000
O                  0.0142180000      2.5242490000     -0.4540680000
C                  1.2095400000      0.5444270000      0.0175140000
H                  1.6663920000      2.8755090000     -0.3583320000
H                  4.5783200000      1.0110010000      0.2560040000
H                  4.4846610000     -1.4344980000      0.6878980000
H                  2.2831260000     -2.6193660000      0.6907030000
H                 -2.6208410000     -2.5243330000      0.2038600000
H                 -4.7265650000     -1.2582580000     -0.2255210000
H                 -4.6306350000      1.1833650000     -0.6562190000
H                 -2.4309990000      2.3551890000     -0.6571730000
$end
$rem
   MAX_SCF_CYCLES=200
   BASIS  =  6-311++G(d,p)
   GUI  =  2
   JOB_TYPE  =  SP
   METHOD  =  B3LYP
   SOLVENT_METHOD = COSMO
$end
$solvent
   dielectric 37.219
   opticaldielectric 1.43
$end





