%chk=276-an.chk
%nproc=8
%mem=30GB
#P UB3LYP/6-311++G(d,p) nosym opt freq

Reduced

-2 1
C                  4.2340640000     -0.0280810000     -0.0475680000
S                  3.0225980000     -1.3301720000     -0.4795830000
C                  1.4448940000     -0.4841020000     -0.2427730000
C                  1.3295860000      0.9068670000     -0.0695840000
C                  0.0896090000      1.5816440000      0.1037000000
O                 -0.0093470000      2.8551680000      0.2759900000
C                 -1.0773110000      0.7019720000      0.0852140000
C                 -2.3695190000      1.2442870000      0.2583530000
C                 -3.5079950000      0.4564840000      0.2491040000
C                 -3.3851630000     -0.9443720000      0.0569150000
C                 -2.1332740000     -1.5048120000     -0.1182320000
C                 -0.9514490000     -0.7246730000     -0.1084290000
C                  0.3348030000     -1.3773210000     -0.2990260000
O                  0.4608870000     -2.6415940000     -0.5101900000
H                  4.2043900000      0.8126340000     -0.7438340000
H                  5.2250380000     -0.4879810000     -0.1036910000
H                  4.0724230000      0.3477560000      0.9681800000
H                  2.2122620000      1.5368390000     -0.0331750000
H                 -2.4252440000      2.3197140000      0.4011500000
H                 -4.4902550000      0.9063340000      0.3861190000
H                 -4.2738390000     -1.5740850000      0.0450150000
H                 -2.0071590000     -2.5725030000     -0.2717910000


