%chk=330.chk
%nproc=8
%mem=30GB
#P UB3LYP/6-311++G(d,p) nosym opt freq

Oxidized

0 1
C     4.6618226378    0.2433964125    0.8984004274
C     3.8575479624   -0.6124830660   -0.0522316004
C     4.3860409126   -0.4196793242   -1.4694860706
C     2.4270742102   -0.2562102384   -0.0723235014
C     2.0288579479    1.0076103510   -0.3981853723
C     0.6590708519    1.2915804929   -0.4016783151
C    -0.2756640884    0.3440490444   -0.0902018012
C     0.1350182154   -0.9346062028    0.2390580669
C     1.4933915528   -1.2161128562    0.2424931607
C    -0.8430777529   -1.9599877922    0.5743337156
O    -0.4800355226   -3.1078637881    0.8702219490
C    -2.2633772172   -1.6352222078    0.5624107285
O    -3.1410470942   -2.4898957771    0.8452775581
C    -2.6409163727   -0.2785620786    0.2098892734
C    -3.9860548377    0.0944891180    0.1806265107
C    -4.9792634631   -0.9689655105    0.5272017274
C    -4.3973957521    1.3703740128   -0.1477945622
C    -3.4595014311    2.3161565726   -0.4589880872
C    -2.1249286626    1.9839121088   -0.4403753663
C    -1.7079288030    0.7175503637   -0.1148810863
H     4.0486571933    0.7154965549    1.6777608650
H     5.2484902061    1.0015515359    0.3128735158
H     5.4455486237   -0.3608319485    1.4422757598
H     3.9924414988   -1.6687084227    0.2309411362
H     4.4107074676   -1.4074469384   -1.9976113977
H     5.4194659574   -0.0417879242   -1.4089893066
H     3.7197948256    0.2496499338   -2.0551437831
H     2.7632663895    1.7725529481   -0.6485361245
H     0.4138068225    2.2980006165   -0.6650831401
H     1.7719114681   -2.2172531522    0.5026285591
H    -4.9387055031   -1.2935819235    1.5689794842
H    -5.9987943630   -0.4695610690    0.4269267026
H    -5.0113549602   -1.7644812568   -0.2354613360
H    -5.4490683835    1.6040209670   -0.1547180844
H    -3.7709908975    3.3439515792   -0.7246184086
H    -1.4148096385    2.7488988651   -0.6894441757


