$molecule
-1 2
Cl                -3.0876310000      0.6713610000      0.1056380000
C                 -1.3581100000      0.2925840000      0.0464480000
C                 -0.9614530000     -1.0133090000      0.0338630000
C                  0.4327630000     -1.4164130000     -0.0137470000
O                  0.7812060000     -2.6202600000     -0.0248310000
C                  1.3581200000     -0.2924660000     -0.0464460000
C                  0.9614770000      1.0133010000     -0.0338630000
C                 -0.4325710000      1.4164410000      0.0137490000
O                 -0.7812850000      2.6202770000      0.0248320000
Cl                 3.0875910000     -0.6716480000     -0.1056440000
H                 -1.6875800000     -1.8168230000      0.0594660000
H                  1.6874730000      1.8169560000     -0.0594660000
$end
$rem
   MAX_SCF_CYCLES=200
   BASIS  =  6-311++G(d,p)
   GUI  =  2
   JOB_TYPE  =  SP
   METHOD  =  B3LYP
   SOLVENT_METHOD = PCM
$end
$pcm
   theory = CPCM
$end
$solvent
   dielectric 37.219
   opticaldielectric 1.43
$end





