$molecule
0 1
C                  0.4493120000      1.6989870000     -2.2719040000
C                 -0.9873170000      2.0807860000     -2.2478930000
C                 -1.9553280000      1.1854780000     -2.0157440000
C                 -1.6286130000     -0.2373290000     -1.7575470000
C                 -0.1937880000     -0.6149340000     -1.7463370000
C                  0.7910190000      0.2806570000     -1.9387410000
O                  1.2976270000      2.5106060000     -2.5977280000
O                 -2.5002460000     -1.0661020000     -1.5543410000
C                  3.3080940000      0.7040960000     -1.3452570000
C                  4.4397660000      0.9675180000     -2.1464900000
C                  3.2084740000      1.2157730000     -0.0361820000
C                  4.2563480000      1.9972370000      0.4567910000
C                  5.4498410000      1.7747480000     -1.6213440000
C                  5.3648080000      2.2846280000     -0.3301860000
H                 -1.1930450000      3.1240370000     -2.4614240000
H                 -3.0082440000      1.4447820000     -2.0153090000
H                  0.0290440000     -1.6591130000     -1.5548040000
H                  4.1990400000      2.3794000000      1.4703500000
H                  6.3148140000      2.0021300000     -2.2348850000
H                  6.1647680000      2.9016370000      0.0637350000
C                  2.2352200000     -0.1891930000     -1.8950240000
O                  2.4842350000     -1.3042890000     -2.3106530000
C                  2.0319320000      0.9215050000      0.8695060000
H                  1.7598410000     -0.1367170000      0.8672080000
H                  1.1416590000      1.4914840000      0.5838040000
H                  2.2713000000      1.1968030000      1.8979870000
C                  4.5743960000      0.4336010000     -3.5536940000
H                  3.6937570000      0.6662000000     -4.1588150000
H                  4.6909620000     -0.6518640000     -3.5584010000
H                  5.4427940000      0.8766670000     -4.0438580000
$end

$rem
   BASIS  =  6-311++G(d,p)
   GUI  =  2
   JOB_TYPE  =  SP
   METHOD  =  B3LYP
   SCF_CONVERGENCE  = 8
   SOLVENT_METHOD = sm12
$end

$smx
   solvent dimethylformamide
   charges CM5
$end





