$molecule
-1 2
C                  5.5746060000     -4.6064590000     -1.0106830000
C                  6.4735110000     -4.0939920000     -1.9771220000
C                  6.1711400000     -2.8192610000     -2.5774340000
C                  4.4041960000     -3.9359170000     -0.6077270000
C                  4.1392580000     -2.6529880000     -1.2398790000
C                  5.0128090000     -2.1422140000     -2.1872830000
C                  3.4537860000     -4.4552820000      0.3997780000
C                  2.2835350000     -3.6179570000      0.6955240000
C                  2.0393480000     -2.3664880000      0.0686410000
C                  2.9555000000     -1.8313700000     -0.9241760000
C                  1.3545700000     -4.0850540000      1.6541190000
C                  0.2330170000     -3.3521380000      1.9820590000
C                 -0.0068020000     -2.1071920000      1.3561790000
C                  0.8838130000     -1.6301710000      0.4185020000
C                  7.6660560000     -4.7573350000     -2.4003740000
C                  8.4955080000     -4.2056370000     -3.3426970000
C                  8.1934540000     -2.9476360000     -3.9325510000
C                  7.0593370000     -2.2800540000     -3.5534420000
O                  3.6030740000     -5.5462560000      0.9913220000
O                  2.7598990000     -0.7290280000     -1.4902010000
Cl                 6.0124640000     -6.1766580000     -0.3180230000
H                  4.7632350000     -1.1819070000     -2.6240700000
H                  1.5612180000     -5.0415350000      2.1190510000
H                 -0.4666470000     -3.7307870000      2.7212070000
H                 -0.8898210000     -1.5303870000      1.6144920000
H                  0.7297990000     -0.6800810000     -0.0797260000
H                  7.9115040000     -5.7145930000     -1.9626020000
H                  9.3938240000     -4.7361120000     -3.6418560000
H                  8.8596850000     -2.5240870000     -4.6768570000
H                  6.8098250000     -1.3183740000     -3.9910710000
$end

$rem
   BASIS  =  6-311++G(d,p)
   GUI  =  2
   JOB_TYPE  =  SP
   METHOD  =  B3LYP
   SCF_CONVERGENCE  = 8
   SOLVENT_METHOD = sm12
$end

$smx
   solvent dimethylformamide
   charges CM5
$end





