$molecule
-1 2
C                 -0.4669120000      1.1266480000     -0.4058730000
C                 -1.3696530000      0.0745050000     -0.8748630000
C                 -1.1941660000     -1.2463700000     -0.6044710000
C                 -0.0741630000     -1.7250180000      0.1887950000
C                  0.8146750000     -0.7005360000      0.6683220000
C                  0.6514970000      0.6603270000      0.4321300000
O                 -0.6526890000      2.3109610000     -0.7541530000
O                  0.1004260000     -2.9525530000      0.4405940000
C                  1.6019760000      1.6201920000      1.0413620000
C                  2.9892080000      1.0954910000      1.4425720000
O                  1.3459360000      2.7952910000      1.2602690000
H                 -2.2027010000      0.4206650000     -1.4805840000
H                 -1.8856860000     -1.9974260000     -0.9777950000
H                  1.6388480000     -1.0601080000      1.2747730000
H                  3.4410040000      0.4801770000      0.6606370000
H                  2.9221280000      0.4815670000      2.3467940000
H                  3.6229350000      1.9567570000      1.6561000000
$end
$rem
   MAX_SCF_CYCLES=200
   BASIS  =  6-311++G(d,p)
   GUI  =  2
   JOB_TYPE  =  SP
   METHOD  =  B3LYP
   SOLVENT_METHOD = PCM
$end
$pcm
   theory = CPCM
$end
$solvent
   dielectric 37.219
   opticaldielectric 1.43
$end





