%chk=313-PCM.chk
%nproc=8
%mem=30GB
#P UB3LYP/6-311++G(d,p) SCRF=(PCM,Solvent=n,n-DiMethylFormamide)

Quinone PCM in DMF 

0 1
C                 -4.2271050000     -1.3039380000     -0.1775400000
C                 -3.9080960000     -1.7889130000     -1.4415640000
C                 -3.1023890000     -1.0366630000     -2.2999130000
C                 -3.7359830000     -0.0638090000      0.2398730000
C                 -2.9252240000      0.6907960000     -0.6235320000
C                 -2.6134660000      0.2004860000     -1.8932110000
C                 -4.1141050000      0.4468860000      1.5929330000
C                 -3.4657440000      1.7312820000      2.0431180000
C                 -2.6949090000      2.4432440000      1.1926310000
C                 -2.3927760000      2.0123090000     -0.1854280000
S                 -3.8792120000      2.4244470000      3.6226680000
C                 -3.6954950000      1.0447740000      4.7629890000
C                 -4.7492030000      0.7415120000      5.6226610000
C                 -2.4829480000      0.3578670000      4.8591470000
C                 -2.3144640000     -0.6654080000      5.7950410000
C                 -4.5780010000     -0.2597360000      6.5762180000
C                 -3.3773840000     -0.9592300000      6.6578790000
C                 -1.0193650000     -1.4378160000      5.8718340000
O                 -4.9250490000     -0.1331410000      2.2860860000
O                 -1.7040550000      2.7094410000     -0.9158430000
H                 -4.8569700000     -1.8683870000      0.4988250000
H                 -4.2891790000     -2.7519830000     -1.7615890000
H                 -2.8581880000     -1.4167840000     -3.2853270000
H                 -1.9893440000      0.8024200000     -2.5423370000
H                 -2.2412710000      3.3811630000      1.4936020000
H                 -5.6914850000      1.2677340000      5.5350240000
H                 -1.6607560000      0.6258170000      4.2044610000
H                 -5.3917160000     -0.5016860000      7.2507400000
H                 -3.2609260000     -1.7408510000      7.4017010000
H                 -0.2049300000     -0.9015740000      5.3804750000
H                 -1.1161980000     -2.4128350000      5.3824160000
H                 -0.7272610000     -1.6216110000      6.9088730000





