$molecule
-2 1
O                  5.0749340000     -0.2739330000     -0.4306260000
C                  3.7328030000      0.1079810000     -0.2537830000
C                  3.4832510000      1.4745540000      0.0207910000
C                  2.1761600000      1.8845290000      0.2022550000
C                  1.0770560000      0.9967920000      0.1291410000
C                 -0.2677590000      1.5124390000      0.3275050000
O                 -0.5000760000      2.7485850000      0.5688280000
C                 -1.3157210000      0.5183380000      0.2271560000
C                 -2.6681220000      0.9153690000      0.4182040000
C                 -3.7008370000      0.0185570000      0.3112290000
O                 -5.0193880000      0.4569320000      0.4751080000
C                 -3.4377010000     -1.3501980000      0.0387620000
C                 -2.1313030000     -1.7677130000     -0.1172160000
C                 -1.0361350000     -0.8740180000     -0.0519190000
C                  0.3056200000     -1.3868330000     -0.2571890000
O                  0.5521640000     -2.6229720000     -0.5067060000
C                  1.3488090000     -0.3950380000     -0.1519810000
C                  2.7023770000     -0.7923190000     -0.3371100000
H                  5.0627080000     -1.2213630000     -0.5995030000
H                  4.3156100000      2.1695070000      0.0827550000
H                  1.9432740000      2.9237190000      0.4128710000
H                 -2.8590180000      1.9575770000      0.6481100000
H                 -5.5500820000     -0.2944200000      0.7807580000
H                 -4.2651760000     -2.0513410000     -0.0561170000
H                 -1.8984410000     -2.8078480000     -0.3217530000
H                  2.8749940000     -1.8468800000     -0.5468160000
$end
$rem
   MAX_SCF_CYCLES=200
   BASIS  =  6-311++G(d,p)
   GUI  =  2
   JOB_TYPE  =  SP
   METHOD  =  B3LYP
   SOLVENT_METHOD = PCM
$end
$pcm
   theory = CPCM
$end
$solvent
   dielectric 37.219
   opticaldielectric 1.43
$end






