$molecule
-2 1
C                 -0.3084750000      1.2131460000     -0.2768050000
C                 -1.3436280000      0.3181550000     -0.7311700000
C                 -1.2730880000     -1.0622790000     -0.6359620000
C                 -0.1572450000     -1.7871050000     -0.0708800000
C                  0.8716960000     -0.9288900000      0.3821830000
C                  0.8164790000      0.5023280000      0.2919830000
O                 -0.3996630000      2.4914710000     -0.3773100000
O                 -0.1348300000     -3.0874570000     -0.0022160000
C                  1.9188790000      1.2406530000      0.7853670000
N                  2.8525830000      1.8049760000      1.2062490000
H                 -2.2220940000      0.7916280000     -1.1717280000
H                 -2.1024050000     -1.6696370000     -1.0048640000
H                  1.7549120000     -1.3863200000      0.8241930000
$end
$rem
   MAX_SCF_CYCLES=200
   BASIS  =  6-311++G(d,p)
   GUI  =  2
   JOB_TYPE  =  SP
   METHOD  =  B3LYP
   SOLVENT_METHOD = PCM
$end
$pcm
   theory = CPCM
$end
$solvent
   dielectric 37.219
   opticaldielectric 1.43
$end





