%chk=282-an-PCM.chk
%nproc=8
%mem=30GB
#P UB3LYP/6-311++G(d,p) SCRF=(PCM,Solvent=n,n-DiMethylFormamide)

Reduced 

-2 1
C                 -1.8205550000      3.1486690000      0.2394700000
C                 -2.9562640000      2.4430860000     -0.1046570000
C                 -2.8598810000      1.0713360000     -0.4645710000
C                 -0.5324940000      2.5441270000      0.2492250000
C                 -0.4323010000      1.1432220000     -0.1275940000
C                 -1.6143480000      0.4590710000     -0.4701020000
C                  0.6286540000      3.2854810000      0.6133630000
C                  1.8477930000      2.5650390000      0.5733350000
C                  1.9960390000      1.2170570000      0.2176430000
C                  0.8493590000      0.4360120000     -0.1552720000
O                  0.6723440000      4.5536730000      0.9695140000
O                  0.9341650000     -0.8048080000     -0.4834010000
H                 -1.8730600000      4.1972060000      0.5182180000
H                 -3.9274630000      2.9375020000     -0.0999540000
H                 -3.7527840000      0.5098800000     -0.7342140000
H                 -1.5031460000     -0.5866180000     -0.7431940000
C                  3.3480780000      0.5551780000      0.2449730000
O                  2.9360610000      3.3416610000      0.9337410000
C                  4.0990820000      0.6170060000     -1.1022050000
H                  3.2016540000     -0.5001120000      0.5043570000
H                  3.9755360000      1.0214690000      1.0151840000
H                  2.4562370000      4.1944110000      1.1072890000
H                  3.5089070000      0.1252570000     -1.8808780000
H                  5.0801710000      0.1169930000     -1.0430710000
H                  4.2690560000      1.6564540000     -1.4017580000





