%chk=184.chk
%nproc=8
%mem=30GB
#P UB3LYP/6-311++G(d,p) nosym opt freq

Oxidized

0 1
C          4.93450       -2.81952       -0.39871
C          5.66036       -1.91409       -1.17314
C          5.06926       -0.72240       -1.58837
C          3.60236       -2.54167       -0.02903
C          3.00549       -1.34022       -0.44729
C          3.75004       -0.43362       -1.22965
C          2.83558       -3.50943        0.79518
C          1.41396       -3.23246        1.20029
C          0.82284       -2.01198        0.76946
C          1.60486       -1.04302       -0.06135
C          0.62928       -4.13683        1.99712
C         -0.69598       -3.80574        2.33525
C         -0.50792       -1.71758        1.12963
C         -1.25010       -2.60861        1.90262
O          3.39653       -4.53703        1.13321
O          1.09283        0.00503       -0.42959
O          1.08794       -5.32292        2.46104
H          5.41689       -3.73815       -0.08906
H          6.68262       -2.13819       -1.45093
H          5.63426       -0.02108       -2.18930
H          3.31442        0.49870       -1.56499
H          1.95632       -5.71273        2.33320
O         -1.46751       -4.63407        3.08571
H         -0.98408       -0.79674        0.81636
H         -2.26960       -2.37279        2.17298
H         -1.16691       -5.48643        3.43043








