$molecule
-2 1
O                 -0.1802510000     -2.5566180000     -0.0677100000
C                 -0.1029380000     -1.2877360000     -0.1695800000
C                 -1.3009190000     -0.4655310000     -0.0176480000
C                 -2.5154350000     -1.0890800000      0.3940980000
C                 -3.6859880000     -0.3685690000      0.5832290000
C                 -3.7077860000      1.0223240000      0.4204470000
C                 -2.5135250000      1.6720150000      0.0628540000
C                 -1.3510570000      0.9467960000     -0.1738900000
S                  0.0497090000      1.8302400000     -0.8358350000
C                  1.4137840000      0.7583830000     -0.4221090000
C                  2.6866280000      1.3177320000     -0.4038750000
C                  3.8268990000      0.5090190000     -0.2556430000
C                  3.6473580000     -0.8681140000     -0.0744950000
C                  2.3756920000     -1.4222510000     -0.0443780000
C                  1.2025820000     -0.6361250000     -0.2423080000
H                 -2.4802930000     -2.1623190000      0.5393820000
H                 -4.6002470000     -0.8887110000      0.8655030000
H                 -4.6238560000      1.5906800000      0.5616600000
H                 -2.5018570000      2.7521440000     -0.0618220000
H                  2.7984570000      2.3910360000     -0.5375920000
H                  4.8214970000      0.9471940000     -0.2859410000
H                  4.5187610000     -1.5098680000      0.0476010000
H                  2.2227820000     -2.4826410000      0.1180540000
$end
$rem
   MAX_SCF_CYCLES=200
   BASIS  =  6-311++G(d,p)
   GUI  =  2
   JOB_TYPE  =  SP
   METHOD  =  B3LYP
   SOLVENT_METHOD = PCM
$end
$pcm
   theory = CPCM
$end
$solvent
   dielectric 37.219
   opticaldielectric 1.43
$end






