$molecule
0 1
C                 -0.5325920000      2.9616560000      0.7127610000
C                 -1.6667400000      2.6000720000     -0.0075270000
C                 -1.6377870000      1.4779850000     -0.8375920000
C                  0.6309070000      2.1962570000      0.6026220000
C                  0.6630300000      1.0678920000     -0.2317270000
C                 -0.4768590000      0.7155810000     -0.9524090000
C                  1.8352030000      2.5590860000      1.3690810000
C                  3.0356520000      1.6835730000      1.2619470000
C                  3.0690720000      0.5592330000      0.4940280000
C                  1.9133780000      0.2460090000     -0.3881690000
O                  1.9064260000      3.5272650000      2.1192620000
O                  1.9633340000     -0.6351950000     -1.2258810000
O                  4.0708070000      2.0866360000      2.0062080000
H                 -0.5296330000      3.8287730000      1.3617280000
H                 -2.5715470000      3.1909010000      0.0755880000
H                 -2.5217830000      1.1986100000     -1.3995120000
H                 -0.4351610000     -0.1531140000     -1.5974840000
H                  3.7696360000      2.8922740000      2.4697720000
S                  4.5644820000     -0.3877740000      0.4018320000
C                  3.9753550000     -2.0860150000      0.4612500000
C                  4.3295140000     -2.9662330000     -0.5606790000
C                  3.2571810000     -2.5586540000      1.5608840000
C                  3.9650010000     -4.3073290000     -0.4787440000
C                  2.8784140000     -3.8968920000      1.6194580000
C                  3.2309910000     -4.7961410000      0.6069910000
C                  2.8547100000     -6.2549230000      0.6971050000
H                  4.8683880000     -2.5985070000     -1.4252990000
H                  2.9967010000     -1.8847630000      2.3687770000
H                  4.2421420000     -4.9805910000     -1.2836980000
H                  2.3099730000     -4.2492810000      2.4744330000
H                  1.9341880000     -6.3949850000      1.2683820000
H                  3.6410170000     -6.8324780000      1.1957380000
H                  2.7088630000     -6.6904680000     -0.2941270000
$end
$rem
   MAX_SCF_CYCLES=200
   BASIS  =  6-311++G(d,p)
   GUI  =  2
   JOB_TYPE  =  SP
   METHOD  =  B3LYP
   SOLVENT_METHOD = COSMO
$end
$solvent
   dielectric 37.219
   opticaldielectric 1.43
$end





