$molecule
0 1
Cl                 3.0042660000     -0.8768930000     -0.1896520000
C                  1.3718010000     -0.3098590000     -0.0839020000
C                  1.0746500000      0.9950780000     -0.0286450000
C                 -0.3295850000      1.4556890000      0.0615850000
O                 -0.5979970000      2.6438570000      0.1118130000
C                 -1.3974890000      0.4310240000      0.0889560000
C                 -1.1036080000     -0.8746800000      0.0338100000
Cl                -2.3315660000     -2.0948570000      0.0639220000
C                  0.3116570000     -1.3767940000     -0.0581600000
O                  0.5773270000     -2.5520730000     -0.1079180000
H                  1.8358650000      1.7649570000     -0.0469740000
H                 -2.4153210000      0.7945510000      0.1551650000
$end
$rem
   MAX_SCF_CYCLES=200
   BASIS  =  6-311++G(d,p)
   GUI  =  2
   JOB_TYPE  =  SP
   METHOD  =  B3LYP
   SOLVENT_METHOD = PCM
$end
$pcm
   theory = CPCM
$end
$solvent
   dielectric 37.219
   opticaldielectric 1.43
$end





