$molecule
-1 2
N                 -3.4375600000      1.5918770000      0.5957780000
C                 -2.8493550000      0.3475780000      0.3474420000
C                 -3.6699470000     -0.7769370000      0.2891700000
C                 -3.1462810000     -2.0510930000      0.0885550000
C                 -1.7742750000     -2.2659560000     -0.0239760000
N                 -1.3193230000     -3.5656990000     -0.2683530000
C                 -0.8862540000     -1.1441600000      0.0600280000
C                  0.5563070000     -1.3446670000      0.0392070000
O                  1.0466000000     -2.5296860000     -0.0182870000
C                  1.4360150000     -0.1846130000      0.0845740000
C                  2.8587470000     -0.3555370000      0.1068870000
N                  3.4611470000     -1.6119240000      0.2285420000
C                  3.6752730000      0.7724370000      0.0593560000
C                  3.1410350000      2.0555840000     -0.0181790000
C                  1.7649240000      2.2738830000     -0.0119820000
N                  1.2958840000      3.5854830000     -0.1366580000
C                  0.8831580000      1.1468550000      0.0667900000
C                 -0.5563200000      1.3447260000      0.1688710000
O                 -1.0466610000      2.5297790000      0.2255100000
C                 -1.4328530000      0.1819710000      0.2058660000
H                 -2.7945520000      2.3594490000      0.4008480000
H                 -4.3711950000      1.6888800000      0.2238420000
H                 -4.7428830000     -0.6476650000      0.4063280000
H                 -3.8166090000     -2.9036380000      0.0146260000
H                 -1.8933370000     -4.2879760000      0.1418660000
H                 -0.3143170000     -3.6493000000     -0.1146430000
H                  4.3630710000     -1.6823440000     -0.2198380000
H                  2.8030240000     -2.3666620000      0.0337930000
H                  4.7536890000      0.6384650000      0.0860220000
H                  3.8058730000      2.9127790000     -0.0877390000
H                  0.3056670000      3.6566680000      0.0979200000
H                  1.9013070000      4.2814430000      0.2738430000
$end
$rem
   MAX_SCF_CYCLES=200
   BASIS  =  6-311++G(d,p)
   GUI  =  2
   JOB_TYPE  =  SP
   METHOD  =  B3LYP
   SOLVENT_METHOD = COSMO
$end
$solvent
   dielectric 37.219
   opticaldielectric 1.43
$end





