%chk=265-rad.chk
%nproc=8
%mem=30GB
#P UB3LYP/6-311++G(d,p) nosym opt freq

Radical

-1 2
C         -1.14163        2.95907       -0.55482
C         -2.47635        2.55567       -0.40000
C         -2.76698        1.26413        0.02276
C         -0.08467        2.06700       -0.28729
C         -0.38024        0.77338        0.17658
C         -1.72385        0.36985        0.29410
C          1.32558        2.46235       -0.51720
C          2.39582        1.55031       -0.07086
C          2.10604        0.34924        0.43751
C          0.72327       -0.11843        0.60026
O          1.59292        3.50577       -1.09298
O          0.53503       -1.19318        1.15058
H         -3.80490        0.94712        0.12375
H          2.87038       -0.33126        0.80200
C         -2.13507       -0.99480        0.66628
O         -2.85181       -1.24371        1.61810
O         -1.72507       -1.83358       -0.31457
C         -2.06934       -3.19913       -0.07837
H         -3.28894        3.24348       -0.63536
H         -1.53321       -3.81409       -0.80650
H         -3.14417       -3.34361       -0.22288
H         -1.76790       -3.51488        0.92579
C          3.80976        1.98120       -0.08371
O          4.19133        3.07221        0.30733
O          4.60102        0.97747       -0.54501
C         -0.95950        4.32937       -1.07347
O         -1.26490        4.55580       -2.23773
O         -0.61739        5.30340       -0.19732
C         -0.36690        5.06271        1.19531
C          5.99114        1.30863       -0.57711
H         -0.32898        6.03327        1.69780
H          0.60155        4.57367        1.32519
H         -1.17058        4.47673        1.64907
H          6.54557        0.41314       -0.87082
H          6.34018        1.61994        0.41280
H          6.17552        2.09237       -1.31814









