$molecule
-1 2
N                  3.1209650000     -1.2440510000      1.3154410000
C                  2.6606130000     -0.5359130000      0.2074570000
C                  3.5841870000     -0.1065770000     -0.7406820000
C                  3.1883840000      0.6605010000     -1.8392270000
C                  1.8689390000      1.0433740000     -2.0085440000
O                  1.5292920000      1.8061570000     -3.1045300000
C                  0.8785310000      0.6369210000     -1.0709280000
C                 -0.5085830000      1.0481910000     -1.2163840000
O                 -0.8750000000      1.8597080000     -2.1302710000
C                 -1.4938480000      0.5164810000     -0.2889540000
C                 -2.8543490000      0.9174910000     -0.4402250000
O                 -3.2363230000      1.7702680000     -1.4162460000
C                 -3.8170980000      0.4251820000      0.4331370000
C                 -3.4644750000     -0.4726050000      1.4391800000
C                 -2.1477030000     -0.8984450000      1.6234220000
N                 -1.8794390000     -1.8506700000      2.6117730000
C                 -1.1261510000     -0.3860060000      0.7615460000
C                  0.2749070000     -0.7284620000      0.9620020000
O                  0.6208980000     -1.4908370000      1.9335180000
C                  1.2737080000     -0.1972880000      0.0401370000
H                  3.9491440000     -1.7961050000      1.1502210000
H                  2.3626800000     -1.6877870000      1.8345440000
H                  4.6318110000     -0.3624110000     -0.6107630000
H                  3.9306290000      0.9745610000     -2.5706400000
H                  2.3431500000      1.9668140000     -3.5936760000
H                 -2.3700870000      1.9814820000     -1.9037850000
H                 -4.8448850000      0.7461020000      0.3039470000
H                 -4.2340930000     -0.8706100000      2.0957710000
H                 -0.8819530000     -1.9305500000      2.8043290000
H                 -2.4838500000     -1.7949170000      3.4184310000
$end
$rem
   MAX_SCF_CYCLES=200
   BASIS  =  6-311++G(d,p)
   GUI  =  2
   JOB_TYPE  =  SP
   METHOD  =  B3LYP
   SOLVENT_METHOD = PCM
$end
$pcm
   theory = CPCM
$end
$solvent
   dielectric 37.219
   opticaldielectric 1.43
$end






