%chk=252.chk
%nproc=8
%mem=30GB
#P UB3LYP/6-311++G(d,p) nosym opt freq Int=Acc2E=11 SCRF=(PCM,Solvent=n,n-DiMethylFormamide)

Oxidized

0 1
C                 -3.49709100    5.65962300    3.29484800
 C                 -2.48993200    6.24285000    4.05878900
 C                 -2.02629100    5.60462300    5.21134400
 C                 -4.04711900    4.43462500    3.68001000
 C                 -3.58081300    3.79331200    4.83715100
 C                 -2.56969500    4.38301700    5.59949800
 C                 -5.12662500    3.81425900    2.86507500
 C                 -5.71440700    2.51565800    3.31549500
 C                 -5.23774600    1.88025300    4.41492000
 C                 -4.15940200    2.48600600    5.24968000
 O                 -5.52621600    4.35343900    1.83964300
 O                 -3.76235100    1.91413600    6.25894700
 H                 -2.06596300    7.19361300    3.75775200
 H                 -1.24224900    6.05988000    5.80492500
 C                 -6.82240500    1.95613800    2.46732700
 H                 -3.86599400    6.14378700    2.39961800
 H                 -2.21917000    3.87692700    6.49002100
 H                 -6.43764800    1.18409700    1.79136700
 H                 -7.26418700    2.73804100    1.85227100
 H                 -7.59899700    1.50130700    3.08261900
 C                 -5.77489500    0.54653900    4.88948900
 C                 -6.93272500    0.71267400    5.85135300
 C                 -8.11243700    0.07484400    5.84211400
 C                 -9.13503500    0.36920400    6.92168500
 C                 -9.38698200   -0.81085600    7.89395900
 C                -10.45096800   -0.49125600    8.90845100
 C                -10.33477100   -0.37293600   10.23999700
 C                 -8.52273600   -0.95809200    4.82171400
 C                -11.54837900   -0.02762900   11.08083700
 C                -11.50933500    1.39345100   11.69845800
 C                -12.69206900    1.65782200   12.58985000
 C                -13.68289600    2.54901500   12.43230300
 C                 -9.05078300   -0.57421500   11.00805300
 C                -13.78466200    3.51986000   11.28060400
 C                -14.79380400    2.63910300   13.46022300
 C                -16.17788600    2.16832200   12.94588000
 C                -17.25440300    2.33882600   13.98287600
 C                -17.99224000    1.39889000   14.59337100
 C                -17.89164800   -0.08174400   14.31618800
 C                -19.02069900    1.79794500   15.63366000
 C                -18.65398700    1.38013700   17.08050400
 C                -19.73175000    1.74023400   18.06642600
 C                -19.68046900    2.60661200   19.08994200
 C                -18.45730300    3.40285000   19.47638500
 C                -20.90276000    2.82986200   19.95901400
 C                -21.55442200    4.22630000   19.79237900
 C                -22.70981900    4.43008100   20.73415800
 C                -24.00970400    4.60066500   20.44804800
 C                -24.57927500    4.64544400   19.05061400
 C                -25.01708400    4.77866300   21.56724300
 C                -25.98910800    3.58483900   21.74479500
 C                -27.01607700    3.84242000   22.81371000
 C                -27.19248500    3.20128300   23.97833200
 C                -26.36180800    2.03673600   24.45740300
 C                -28.28695200    3.61719700   24.93241000
 H                 -4.96226100    0.02418000    5.40287900
 H                 -6.05595800   -0.06182600    4.03072900
 H                 -6.75448700    1.43089100    6.64916500
 H                -10.08886500    0.63775100    6.44846500
 H                 -8.81420800    1.23813300    7.50346000
 H                 -8.44274900   -1.08133600    8.37200900
 H                 -9.70683300   -1.68575100    7.31567400
 H                -11.44084000   -0.32618200    8.48177400
 H                 -7.82643100   -1.03875400    3.98722900
 H                 -9.51296800   -0.72162900    4.41715400
 H                 -8.60076800   -1.95067500    5.27789800
 H                -11.64201400   -0.75667300   11.89679200
 H                -12.45326000   -0.11679100   10.47239100
 H                -11.44116800    2.12601000   10.89106600
 H                -10.59400100    1.49764300   12.29313500
 H                -12.73742000    1.01958700   13.47292100
 H                 -8.21055600   -0.84921000   10.37130800
 H                 -9.17769500   -1.36192100   11.75992100
 H                 -8.76990700    0.33280200   11.55348100
 H                -12.94156300    3.45656800   10.59336400
 H                -13.83985000    4.54885200   11.65475000
 H                -14.69800200    3.35133000   10.70041800
 H                -14.88780000    3.67925800   13.80017300
 H                -14.52852100    2.04289100   14.33837600
 H                -16.09673700    1.13007700   12.61618700
 H                -16.44772600    2.75729100   12.06115300
 H                -17.43520900    3.37445200   14.27290700
 H                -17.17147900   -0.32190700   13.53466400
 H                -18.86712600   -0.47784500   14.01053400
 H                -17.60071300   -0.63401900   15.21593500
 H                -19.98870800    1.34648300   15.37818600
 H                -19.16222700    2.88257400   15.61097400
 H                -17.69723200    1.83552900   17.34582900
 H                -18.50223800    0.29453100   17.10938900
 H                -20.67855400    1.22448400   17.90249700
 H                -17.58908800    3.17959800   18.85716900
 H                -18.18858200    3.20327000   20.52031600
 H                -18.64679600    4.47905000   19.40519100
 H                -20.62424900    2.70224200   21.01365900
 H                -21.65492400    2.06713600   19.73658600
 H                -21.85690400    4.35111800   18.75018800
 H                -20.80051800    4.99674000   19.99346500
 H                -22.43272800    4.42463100   21.78890700
 H                -23.81802500    4.55630500   18.27625300
 H                -25.11720300    5.58703300   18.88966600
 H                -25.30668200    3.84199300   18.89392600
 H                -25.61150500    5.68255500   21.37784900
 H                -24.48970300    4.94015900   22.51212000
 H                -25.40739300    2.68433600   21.95494400
 H                -26.50934900    3.40521100   20.79635800
 H                -27.68885100    4.67316100   22.59874100
 H                -25.56333000    1.76215300   23.76874500
 H                -26.99358800    1.15426500   24.61319700
 H                -25.90766300    2.26692700   25.42820200
 H                -28.86318200    4.46117100   24.54744500
 H                -27.87013200    3.90096500   25.90609100
 H                -28.97825800    2.78707300   25.12071100









