$molecule
0 1
C                 -1.7435860000      1.4579360000      1.0133250000
C                 -2.9848160000      0.6889460000      0.7914970000
C                 -3.0408480000     -0.5194970000      0.2076680000
C                 -1.7445800000     -1.1336290000     -0.2533610000
C                 -0.4607710000     -0.3648040000     -0.0361180000
C                 -0.4527790000      0.8469640000      0.5550450000
O                 -1.7120980000     -2.2219650000     -0.7900160000
O                 -1.7871350000      2.5478180000      1.5509890000
I                  1.2450140000      2.0136230000      0.9152490000
I                  1.2515930000     -1.3527820000     -0.7303510000
H                 -3.8680390000      1.1999380000      1.1507370000
C                 -4.3484970000     -1.2910800000     -0.0077380000
C                 -5.5552210000     -0.4985410000      0.5298060000
C                 -4.2914960000     -2.6441120000      0.7453490000
C                 -4.5727880000     -1.5346850000     -1.5214890000
H                 -5.6774420000      0.4613740000      0.0205170000
H                 -5.4807940000     -0.3140190000      1.6050580000
H                 -6.4653360000     -1.0781200000      0.3590760000
H                 -4.1319730000     -2.4879220000      1.8163180000
H                 -3.5003230000     -3.2872510000      0.3640380000
H                 -5.2457510000     -3.1641520000      0.6230540000
H                 -4.6139170000     -0.5872650000     -2.0669360000
H                 -5.5297730000     -2.0439800000     -1.6658090000
H                 -3.7879020000     -2.1531750000     -1.9532260000
$end
$rem
   MAX_SCF_CYCLES=200
   BASIS  =  6-311++G(d,p)
   GUI  =  2
   JOB_TYPE  =  SP
   METHOD  =  B3LYP
   SOLVENT_METHOD = COSMO
$end
$solvent
   dielectric 37.219
   opticaldielectric 1.43
$end





