$molecule
0 1
Cl                -3.0835280000      0.6939830000      0.1054540000
C                 -1.4109070000      0.2579660000      0.0482930000
C                 -1.0085060000     -1.0200780000      0.0355030000
C                  0.4232520000     -1.3920380000     -0.0134570000
O                  0.7712370000     -2.5532850000     -0.0245630000
C                  1.4108730000     -0.2579330000     -0.0482930000
C                  1.0084980000      1.0200600000     -0.0355040000
C                 -0.4231940000      1.3920810000      0.0134520000
O                 -0.7712580000      2.5533230000      0.0245680000
Cl                 3.0835510000     -0.6940710000     -0.1054550000
H                 -1.7056200000     -1.8482970000      0.0601360000
H                  1.7056020000      1.8482890000     -0.0601350000
$end
$rem
   MAX_SCF_CYCLES=200
   BASIS  =  6-311++G(d,p)
   GUI  =  2
   JOB_TYPE  =  SP
   METHOD  =  B3LYP
   SOLVENT_METHOD = COSMO
$end
$solvent
   dielectric 37.219
   opticaldielectric 1.43
$end





