$molecule
0 1
C                 -0.9183340000      2.5712000000      0.1820710000
C                  0.4901600000      2.7985180000     -0.2734610000
C                  1.2020240000      1.7942110000     -0.8239560000
C                  0.5843490000      0.4434620000     -0.9926900000
C                 -0.8208240000      0.2064580000     -0.5006750000
C                 -1.5192500000      1.2201980000      0.0777050000
O                 -1.5781710000      3.5029670000      0.6248900000
O                  1.2018610000     -0.4688470000     -1.5069770000
O                 -2.8311390000      1.0710940000      0.4248080000
O                 -1.2045460000     -1.0501870000     -0.7407780000
C                 -3.1925520000      1.3225340000      1.7944570000
C                 -2.3987450000     -1.6195650000     -0.1846340000
C                  2.6187630000      1.9424560000     -1.3076790000
C                  1.0334390000      4.1964050000     -0.0695270000
C                  1.6907130000      4.3529080000      1.2840630000
C                  2.9076300000      4.8377990000      1.5628160000
C                  3.8965090000      5.3416490000      0.5421310000
C                  3.3840120000      4.9380180000      2.9919090000
H                 -3.0196110000      2.3640870000      2.0600610000
H                 -2.6298590000      0.6601370000      2.4619850000
H                 -4.2546390000      1.0909940000      1.8639600000
H                 -2.3635830000     -2.6670740000     -0.4794340000
H                 -3.2905870000     -1.1396970000     -0.5833780000
H                 -2.3929560000     -1.5434240000      0.9050260000
H                  3.2279440000      2.4752690000     -0.5754580000
H                  2.6527560000      2.5089000000     -2.2449580000
H                  3.0574940000      0.9645200000     -1.4985290000
H                  0.1915680000      4.8923680000     -0.1312000000
H                  1.7236910000      4.4410610000     -0.8765960000
H                  1.0668700000      4.0447940000      2.1202920000
H                  3.5550510000      5.2322660000     -0.4869460000
H                  4.8534750000      4.8161410000      0.6402760000
H                  4.1082180000      6.4040340000      0.7105680000
H                  2.6354670000      4.5707650000      3.6964440000
H                  3.6195820000      5.9761600000      3.2542340000
H                  4.3049390000      4.3613690000      3.1388380000
$end
$rem
   MAX_SCF_CYCLES=200
   BASIS  =  6-311++G(d,p)
   GUI  =  2
   JOB_TYPE  =  SP
   METHOD  =  B3LYP
   SOLVENT_METHOD = PCM
$end
$pcm
   theory = CPCM
$end
$solvent
   dielectric 37.219
   opticaldielectric 1.43
$end





