$molecule
-2 1
C                 -4.9631230000     -0.4480770000     -0.3174340000
C                 -3.6324740000     -0.3782230000      0.3984010000
O                 -3.3833230000     -0.9510960000      1.4335880000
O                 -2.5756580000     -1.8538130000     -1.4533930000
C                 -1.3053770000     -1.7415440000     -1.3575120000
C                 -0.4313390000     -2.6769040000     -1.9588740000
C                  0.9639690000     -2.5877430000     -1.8566680000
C                  1.5550850000     -1.5762150000     -1.1443600000
O                  2.9740770000     -1.4933740000     -1.2162420000
C                  3.7208160000     -1.8173270000     -0.1464330000
C                  5.0985100000     -1.2067710000     -0.2817620000
O                  3.3805990000     -2.5289690000      0.7700870000
C                  0.7947360000     -0.5577490000     -0.4959510000
C                  1.4498660000      0.5250500000      0.2416580000
O                  2.7068450000      0.5880950000      0.4188520000
C                  0.5841440000      1.5632330000      0.7749060000
C                  1.1542120000      2.6621270000      1.4531210000
C                  0.3874600000      3.6872430000      1.9714880000
C                 -1.0259960000      3.6342200000      1.8211580000
C                 -1.6210290000      2.5777990000      1.1748280000
C                 -0.8484940000      1.5006250000      0.6296860000
C                 -1.4146400000      0.4148640000     -0.0350660000
O                 -2.8166200000      0.4830280000     -0.2426350000
C                 -0.6504060000     -0.6227050000     -0.6160900000
H                 -4.7955720000     -1.0671630000     -1.2014770000
H                 -5.2831630000      0.5469870000     -0.6395680000
H                 -5.7131970000     -0.9006770000      0.3330310000
H                 -0.8933240000     -3.4925960000     -2.5084530000
H                  1.6033340000     -3.3193530000     -2.3452390000
H                  4.9827280000     -0.1495110000     -0.0312710000
H                  5.4594390000     -1.2828060000     -1.3109710000
H                  5.7928810000     -1.6897460000      0.4073950000
H                  2.2352590000      2.6609880000      1.5472230000
H                  0.8527760000      4.5224570000      2.4891300000
H                 -1.6437990000      4.4337790000      2.2260550000
H                 -2.6992070000      2.5418660000      1.0687970000
$end

$rem
   BASIS  =  6-311++G(d,p)
   GUI  =  2
   JOB_TYPE  =  SP
   METHOD  =  B3LYP
   SCF_CONVERGENCE  = 8
   SOLVENT_METHOD = sm12
$end

$smx
   solvent dimethylformamide
   charges CM5
$end





