$molecule
0 1
C                 -2.4881650000      1.4032700000      0.3575710000
C                 -2.0058200000     -0.0592030000      0.4343500000
C                 -2.7728100000     -0.9600880000     -0.5543030000
C                 -0.5036300000     -0.1773190000      0.2722420000
C                  0.2831110000     -0.6506490000      1.2559590000
C                  1.7507610000     -0.7830430000      1.1420390000
O                  2.4139140000     -1.2203150000      2.0702960000
C                  2.4035650000     -0.3674300000     -0.1402180000
C                  1.6246280000      0.1060850000     -1.1270920000
C                  0.1546610000      0.2388630000     -1.0130900000
O                 -0.4908670000      0.6789670000     -1.9529360000
C                  3.8908920000     -0.5097980000     -0.2335560000
H                 -2.3377400000      1.8158360000     -0.6406000000
H                 -3.5552650000      1.4504900000      0.5923340000
H                 -1.9590290000      2.0331580000      1.0779210000
H                 -2.2228150000     -0.4230430000      1.4451090000
H                 -2.6323220000     -0.6255490000     -1.5826680000
H                 -2.4444410000     -2.0003460000     -0.4788220000
H                 -3.8417580000     -0.9292350000     -0.3253200000
H                 -0.1284830000     -0.9684110000      2.2090550000
H                  2.0351690000      0.4239840000     -2.0802590000
H                  4.3820420000      0.0723640000      0.5511160000
H                  4.2567670000     -0.1795280000     -1.2063900000
H                  4.1876350000     -1.5499540000     -0.0727370000
$end
$rem
   MAX_SCF_CYCLES=200
   BASIS  =  6-311++G(d,p)
   GUI  =  2
   JOB_TYPE  =  SP
   METHOD  =  B3LYP
   SOLVENT_METHOD = COSMO
$end
$solvent
   dielectric 37.219
   opticaldielectric 1.43
$end





