$molecule
-3 1
C                  5.0501380000     -2.8934330000     -0.3568480000
C                  5.8212790000     -2.0439660000     -1.1246940000
C                  5.2650520000     -0.8212910000     -1.5965520000
C                  3.7072170000     -2.5913600000     -0.0153310000
C                  3.1527870000     -1.3371840000     -0.4687320000
C                  3.9657320000     -0.4925660000     -1.2713610000
C                  2.9362350000     -3.5160190000      0.7755660000
C                  1.5821840000     -3.1341760000      1.1117690000
C                  1.0392840000     -1.8787770000      0.6578560000
C                  1.8126910000     -0.9528810000     -0.1335900000
C                  0.7675680000     -4.0215610000      1.9071620000
C                 -0.5432510000     -3.6617940000      2.2295830000
C                 -0.3082010000     -1.5567960000      1.0141700000
C                 -1.0619740000     -2.4297230000      1.7749270000
O                  3.4486960000     -4.6431160000      1.1766470000
O                  1.3050690000      0.1828300000     -0.5381670000
O                  1.2963610000     -5.1887650000      2.3259370000
H                  5.4488500000     -3.8326530000      0.0122350000
H                  6.8491760000     -2.3026680000     -1.3757790000
H                  5.8698840000     -0.1527780000     -2.2089780000
H                  2.2394320000     -5.1880630000      1.9521710000
O                 -0.8555140000     -0.3725450000      0.5951600000
H                 -2.0803100000     -2.1729910000      2.0363430000
H                 -0.0992700000      0.0621680000      0.0685150000
H                  3.5184490000      0.4338650000     -1.6163700000
S                 -1.6602240000     -4.7206970000      3.2378390000
O                 -1.8308010000     -6.0063670000      2.4993230000
O                 -1.0201490000     -4.8830410000      4.5763590000
O                 -2.9399690000     -3.9412650000      3.3158120000
$end

$rem
   BASIS  =  6-311++G(d,p)
   GUI  =  2
   JOB_TYPE  =  SP
   METHOD  =  B3LYP
   SCF_CONVERGENCE  = 8
   SOLVENT_METHOD = sm12
$end

$smx
   solvent dimethylformamide
   charges CM5
$end





