$molecule
-2 1
C                  3.8405980000      1.2651240000     -1.3635810000
N                  2.5264580000      1.1715620000     -0.7977580000
C                  2.0623840000      0.0301650000     -0.1740790000
C                  2.9323340000     -0.9767180000      0.2477150000
C                  2.4358240000     -2.1092450000      0.9420900000
C                  1.0918870000     -2.2386750000      1.1986800000
C                  0.1572330000     -1.2594300000      0.7628150000
C                 -1.2459590000     -1.4876150000      1.0551840000
O                 -1.6596420000     -2.5179820000      1.6975960000
C                 -2.1485960000     -0.4661500000      0.5696390000
C                 -3.5406740000     -0.5929080000      0.8039140000
C                 -4.4509120000      0.3437180000      0.3579110000
C                 -3.9889780000      1.4798080000     -0.3655660000
C                 -2.6400310000      1.6321300000     -0.6107740000
C                 -1.6783500000      0.6890340000     -0.1611170000
C                 -0.2832700000      0.9087260000     -0.4479030000
O                  0.0939870000      1.9566700000     -1.1328260000
C                  0.6301160000     -0.0893600000      0.0496700000
H                  4.0959640000      0.4125410000     -2.0239190000
H                  4.6329830000      1.3141270000     -0.5988500000
H                  3.9103240000      2.1799690000     -1.9610380000
H                  1.7341910000      1.7434490000     -1.1541860000
H                  3.9985690000     -0.8750880000      0.0754380000
H                  3.1349290000     -2.8765960000      1.2721450000
H                  0.6876170000     -3.0923420000      1.7309960000
H                 -3.8574560000     -1.4726000000      1.3560070000
H                 -5.5140190000      0.2164770000      0.5555230000
H                 -4.6983680000      2.2244980000     -0.7230940000
H                 -2.2591420000      2.4867100000     -1.1606330000
$end
$rem
   MAX_SCF_CYCLES=200
   BASIS  =  6-311++G(d,p)
   GUI  =  2
   JOB_TYPE  =  SP
   METHOD  =  B3LYP
   SOLVENT_METHOD = COSMO
$end
$solvent
   dielectric 37.219
   opticaldielectric 1.43
$end





