$molecule
0 1
O                  2.7290710000     -2.7081710000     -1.3568140000
C                  2.2231930000     -1.7371550000     -0.8138060000
C                  0.7552560000     -1.5923460000     -0.7503020000
C                  0.1114840000     -0.5571600000     -0.1735920000
C                 -1.3997970000     -0.4894150000     -0.1552140000
C                 -1.9618410000      0.7183770000     -0.9440990000
C                 -3.4966100000      0.6873410000     -0.9749910000
C                 -4.0913110000      0.6278210000      0.4386710000
C                 -3.5267250000     -0.5585900000      1.2319810000
C                 -1.9920570000     -0.5342930000      1.2745560000
C                  0.9195320000      0.5410020000      0.4569420000
O                  0.3793500000      1.4960620000      0.9918400000
C                  2.4107660000      0.4350550000      0.4151820000
C                  3.1833580000      1.4452630000      0.9949400000
C                  4.5716450000      1.3640910000      0.9652280000
C                  5.1994300000      0.2741290000      0.3567910000
C                  4.4378450000     -0.7355290000     -0.2223540000
C                  3.0438920000     -0.6591010000     -0.1954000000
H                  0.2032110000     -2.4034450000     -1.2156020000
H                 -1.7451390000     -1.3950700000     -0.6712480000
H                 -1.6206430000      1.6446280000     -0.4749120000
H                 -1.5648280000      0.7061070000     -1.9647500000
H                 -3.8705330000      1.5677720000     -1.5075120000
H                 -3.8331040000     -0.1877280000     -1.5466650000
H                 -3.8571850000      1.5600260000      0.9681050000
H                 -5.1830170000      0.5626540000      0.3870260000
H                 -3.8647660000     -1.4961830000      0.7710540000
H                 -3.9219670000     -0.5552210000      2.2529290000
H                 -1.6163740000     -1.4192170000      1.7992010000
H                 -1.6519850000      0.3418050000      1.8324960000
H                  2.6789650000      2.2822030000      1.4617390000
H                  5.1676050000      2.1496060000      1.4158380000
H                  6.2816890000      0.2148430000      0.3358370000
H                  4.9015920000     -1.5901650000     -0.6996880000
$end
$rem
   MAX_SCF_CYCLES=200
   BASIS  =  6-311++G(d,p)
   GUI  =  2
   JOB_TYPE  =  SP
   METHOD  =  B3LYP
   SOLVENT_METHOD = COSMO
$end
$solvent
   dielectric 37.219
   opticaldielectric 1.43
$end





