%chk=212.chk
%nproc=8
%mem=30GB
#P UB3LYP/6-311++G(d,p) nosym opt freq

Oxidized

0 1
O                  3.7817280000     -2.4795000000      0.3830730000
C                  3.0009030000     -1.5493650000      0.2512430000
C                  3.4020100000     -0.1567100000      0.5749910000
C                  4.6811310000      0.0983440000      1.0810400000
C                  5.0719070000      1.4021960000      1.3572670000
C                  4.1900770000      2.4607210000      1.1176670000
C                  2.9217140000      2.2134430000      0.6056510000
C                  2.5142260000      0.9020490000      0.3395370000
C                  1.1346480000      0.6691040000     -0.1976700000
O                  0.4883970000      1.6271630000     -0.6100320000
C                  0.6438960000     -0.7251840000     -0.2678300000
C                 -0.7150360000     -1.0436430000     -0.6013150000
C                 -0.9728950000     -2.3382120000     -1.1210780000
C                  0.0066990000     -3.3130450000     -1.1566910000
C                  1.2869250000     -3.0554150000     -0.6684580000
C                  1.6029520000     -1.7746180000     -0.2354680000
N                 -1.7595520000     -0.1729750000     -0.4117820000
C                 -1.7780410000      0.7898170000      0.6994740000
C                 -3.1547400000      0.8092110000      1.3686560000
C                 -4.2539650000      1.2665560000      0.3868980000
C                 -3.8878220000      0.8782790000     -1.0606050000
C                 -3.0372160000     -0.3916230000     -1.1042870000
H                  5.3491010000     -0.7387410000      1.2425380000
H                  6.0619970000      1.5996440000      1.7523830000
H                  4.4970660000      3.4789290000      1.3294280000
H                  2.2291980000      3.0209210000      0.4039330000
H                 -1.9720000000     -2.5940950000     -1.4440380000
H                 -0.2412920000     -4.2991570000     -1.5339600000
H                  2.0496910000     -3.8216950000     -0.6345280000
H                 -1.4984340000      1.7878130000      0.3489590000
H                 -1.0146280000      0.4863780000      1.4194970000
H                 -3.1127900000      1.4701470000      2.2387290000
H                 -3.3796240000     -0.1927050000      1.7490600000
H                 -4.3908580000      2.3498920000      0.4484970000
H                 -5.2096690000      0.8158440000      0.6708340000
H                 -4.7875660000      0.7235320000     -1.6619960000
H                 -3.3234580000      1.6842960000     -1.5385110000
H                 -2.8267020000     -0.6596860000     -2.1422390000
H                 -3.5979780000     -1.2279100000     -0.6576690000


