%chk=313-rad-PCM.chk
%nproc=8
%mem=30GB
#P UB3LYP/6-311++G(d,p) SCRF=(PCM,Solvent=n,n-DiMethylFormamide)

Radical PCM in DMF 

-1 2
C                 -5.5148860000     -0.0404140000     -0.4310770000
C                 -5.7487700000     -0.4882650000     -1.7197660000
C                 -4.6873610000     -0.5633470000     -2.6403330000
C                 -4.2244880000      0.3449330000     -0.0209240000
C                 -3.1561100000      0.2694130000     -0.9489970000
C                 -3.4120850000     -0.1888320000     -2.2552240000
C                 -4.0288170000      0.8243870000      1.3692780000
C                 -2.6647720000      1.1860620000      1.7021190000
C                 -1.6228280000      1.1046550000      0.7897210000
C                 -1.7852830000      0.6607260000     -0.5648610000
S                 -2.3270720000      1.8957690000      3.3104900000
C                 -2.4307660000      0.5358800000      4.4605460000
C                 -2.5675630000     -0.8009320000      4.0759670000
C                 -2.3347030000      0.8463200000      5.8249600000
C                 -2.3682750000     -0.1474280000      6.8034200000
C                 -2.6014610000     -1.7960790000      5.0485240000
C                 -2.4997540000     -1.4823930000      6.4030070000
C                 -2.3010680000      0.2171160000      8.2692720000
O                 -4.9843110000      0.8907500000      2.1722520000
O                 -0.8247410000      0.5984580000     -1.3770720000
H                 -6.3128390000      0.0282330000      0.2992700000
H                 -6.7500850000     -0.7819830000     -2.0205050000
H                 -4.8700900000     -0.9148480000     -3.6515610000
H                 -2.5741590000     -0.2354280000     -2.9414830000
H                 -0.6190960000      1.3858830000      1.0887120000
H                 -2.6480080000     -1.0530590000      3.0265610000
H                 -2.2364620000      1.8859760000      6.1246950000
H                 -2.7071600000     -2.8320790000      4.7420040000
H                 -2.5258020000     -2.2712140000      7.1488280000
H                 -1.7804560000      1.1662960000      8.4206080000
H                 -1.7790490000     -0.5510010000      8.8472120000
H                 -3.3048800000      0.3222550000      8.6972680000





