$molecule
-1 2
C                 -3.1498000000      1.4230710000      0.1950880000
C                 -2.4122320000      0.6542510000     -0.9177600000
C                 -1.0496530000      0.1562340000     -0.4895070000
C                 -0.8596900000     -1.1291870000      0.0083500000
C                 -2.0039080000     -2.1091500000      0.1350010000
C                  0.4438140000     -1.6080180000      0.4260590000
O                  0.6274130000     -2.7750580000      0.8737030000
C                  1.5644490000     -0.6629370000      0.3074760000
C                  2.8593610000     -1.0596530000      0.6973850000
C                  3.9321240000     -0.1916790000      0.5964830000
C                  3.7369190000      1.1114370000      0.0972130000
C                  2.4725230000      1.5187340000     -0.2898240000
C                  1.3684020000      0.6485440000     -0.1943820000
C                  0.0359150000      1.1069870000     -0.6120520000
O                 -0.1425570000      2.2766420000     -1.0548660000
H                 -4.1247860000      1.7857080000     -0.1532350000
H                 -2.5565380000      2.2856550000      0.5070380000
H                 -3.3178260000      0.7895910000      1.0719900000
H                 -3.0349500000     -0.1790940000     -1.2570070000
H                 -2.2731450000      1.3335510000     -1.7633220000
H                 -1.6452650000     -3.0095740000      0.6342760000
H                 -2.8405970000     -1.6948800000      0.7086170000
H                 -2.4019580000     -2.3991670000     -0.8460910000
H                  2.9790780000     -2.0678080000      1.0774000000
H                  4.9240420000     -0.5132890000      0.9013390000
H                  4.5782320000      1.7940550000      0.0173530000
H                  2.2906350000      2.5150360000     -0.6767250000
$end
$rem
   MAX_SCF_CYCLES=200
   BASIS  =  6-311++G(d,p)
   GUI  =  2
   JOB_TYPE  =  SP
   METHOD  =  B3LYP
   SOLVENT_METHOD = PCM
$end
$pcm
   theory = CPCM
$end
$solvent
   dielectric 37.219
   opticaldielectric 1.43
$end






