$molecule
-1 2
C                  5.8491260000     -5.2149870000      1.1747280000
C                  6.7562100000     -5.1200450000      0.1389640000
C                  6.5693510000     -4.1540670000     -0.8732560000
C                  4.7342760000     -4.3605580000      1.2402270000
C                  4.5469080000     -3.3913720000      0.2248700000
C                  5.4802850000     -3.3078420000     -0.8234760000
C                  3.7890570000     -4.4900380000      2.3572980000
C                  2.6655620000     -3.5735400000      2.3545390000
C                  2.4818180000     -2.6225910000      1.3584510000
C                  3.3995080000     -2.4742470000      0.2457810000
O                  3.9644570000     -5.3559950000      3.2562820000
O                  3.2414660000     -1.6147770000     -0.6625990000
H                  5.9710420000     -5.9475300000      1.9623010000
H                  5.3156360000     -2.5591980000     -1.5877840000
Br                 8.2547150000     -6.3314270000      0.1297870000
Br                 7.7972290000     -3.9686950000     -2.3465530000
C                  1.6871870000     -3.6963110000      3.4963230000
C                  1.2989470000     -1.6868280000      1.3917100000
H                  2.0084210000     -4.4951550000      4.1645500000
H                  0.6750220000     -3.9222990000      3.1387030000
H                  1.6168760000     -2.7641520000      4.0704000000
H                  0.3490590000     -2.2352430000      1.3723020000
H                  1.3372760000     -1.0232600000      0.5279490000
H                  1.2913730000     -1.0772750000      2.3037500000
$end
$rem
   MAX_SCF_CYCLES=200
   BASIS  =  6-311++G(d,p)
   GUI  =  2
   JOB_TYPE  =  SP
   METHOD  =  B3LYP
   SOLVENT_METHOD = COSMO
$end
$solvent
   dielectric 37.219
   opticaldielectric 1.43
$end





