$molecule
-1 2
C                 -0.9279480000      2.1152020000      0.0029000000
C                 -2.0842000000      1.2702520000     -0.0669450000
C                 -2.0418280000     -0.0887470000     -0.1402570000
C                 -0.8350630000     -0.8628380000     -0.1578110000
C                  0.3709810000     -0.0286290000     -0.0668000000
C                  0.3278950000      1.3525730000      0.0076530000
O                 -0.9836740000      3.3749770000      0.0514450000
O                 -0.8123410000     -2.1215480000     -0.2451910000
C                  1.5952830000      2.1666900000      0.1015050000
C                  1.6868900000     -0.7676710000     -0.0566260000
O                 -3.3373310000     -0.5907060000     -0.2723140000
O                 -3.4088520000      1.7020220000     -0.1486680000
C                 -4.1483230000      0.5144720000      0.1058700000
H                  2.1819260000      1.9067380000      0.9920030000
H                  1.3400850000      3.2260860000      0.1489830000
H                  2.2494160000      2.0034780000     -0.7645400000
H                  1.4981550000     -1.8401110000     -0.1195660000
H                  2.2612580000     -0.5651310000      0.8564670000
H                  2.3247510000     -0.4753970000     -0.9006180000
H                 -5.0648940000      0.5177880000     -0.4861940000
H                 -4.3674050000      0.4492880000      1.1868040000
$end
$rem
   MAX_SCF_CYCLES=200
   BASIS  =  6-311++G(d,p)
   GUI  =  2
   JOB_TYPE  =  SP
   METHOD  =  B3LYP
   SOLVENT_METHOD = COSMO
$end
$solvent
   dielectric 37.219
   opticaldielectric 1.43
$end





