$molecule
0 1
C                  0.6413530000     -1.7087170000     -0.9242310000
C                 -0.5567110000     -1.1421630000     -0.2191850000
C                 -0.4754770000      0.0138780000      0.4654610000
C                  0.8165740000      0.7802330000      0.5510000000
C                  1.9953120000      0.1832160000     -0.1491140000
C                  1.9438430000     -0.9638420000     -0.8519720000
O                  0.5658920000     -2.7486080000     -1.5432410000
O                  0.8871220000      1.8233050000      1.1560510000
Br                -2.1377390000     -2.1606070000     -0.3748810000
Br                -1.9271200000      0.7999570000      1.3775810000
Br                 3.5980360000      1.1945260000      0.0297480000
C                  3.1026300000     -1.6075390000     -1.5578050000
C                  3.8400700000     -2.6322500000     -0.6664670000
C                  5.0135940000     -3.2942530000     -1.3961500000
C                  5.7616850000     -4.3159720000     -0.5325930000
C                  6.9373250000     -4.9834500000     -1.2555300000
C                  7.6794590000     -6.0034660000     -0.3872320000
H                  3.8025140000     -0.8346420000     -1.8797530000
H                  2.7249000000     -2.1197390000     -2.4449490000
H                  3.1309270000     -3.4002250000     -0.3409470000
H                  4.2036190000     -2.1292440000      0.2361800000
H                  5.7150480000     -2.5200140000     -1.7321300000
H                  4.6427310000     -3.7875150000     -2.3032830000
H                  5.0592400000     -5.0892220000     -0.1959300000
H                  6.1301400000     -3.8227730000      0.3762190000
H                  7.6392690000     -4.2108200000     -1.5921130000
H                  6.5690580000     -5.4760440000     -2.1635720000
H                  8.0898880000     -5.5335570000      0.5121440000
H                  8.5105060000     -6.4609050000     -0.9310390000
H                  7.0115430000     -6.8080440000     -0.0637970000
$end
$rem
   MAX_SCF_CYCLES=200
   BASIS  =  6-311++G(d,p)
   GUI  =  2
   JOB_TYPE  =  SP
   METHOD  =  B3LYP
   SOLVENT_METHOD = PCM
$end
$pcm
   theory = CPCM
$end
$solvent
   dielectric 37.219
   opticaldielectric 1.43
$end





