%chk=104-an.chk
%nproc=8
%mem=30GB
#P UB3LYP/6-311++G(d,p) nosym opt freq SCRF=(PCM,Solvent=n,n-DiMethylFormamide)

Reduced

-2 1
C                 -2.3182210000     -2.3047810000      5.0470880000
C                 -1.3621410000     -3.2331690000      4.5136980000
C                 -1.3290430000     -3.5024040000      3.1389410000
C                 -2.2075660000     -2.8976640000      2.1748980000
C                 -3.1669520000     -1.9807900000      2.7255930000
C                 -3.2270780000     -1.7023690000      4.0856570000
O                 -2.4094130000     -1.9638320000      6.3023200000
O                 -2.1358370000     -3.1610050000      0.9160540000
N                 -4.1505670000     -0.8339950000      4.6792470000
C                 -4.8544100000      0.2196600000      3.9819680000
C                 -6.1795920000     -0.2817030000      3.3711670000
C                 -5.1204480000      1.3835460000      4.9462150000
H                 -3.8474230000     -1.5056420000      2.0244230000
H                 -3.8587710000     -0.6608910000      5.6380880000
H                 -4.2299790000      0.5941100000      3.1519970000
H                 -6.6587220000      0.5029610000      2.7689710000
H                 -6.8718880000     -0.5747130000      4.1684900000
H                 -6.0058290000     -1.1527260000      2.7353880000
H                 -5.7307460000      2.1612520000      4.4801200000
H                 -4.1832830000      1.8399640000      5.2828700000
H                 -5.6629670000      1.0268980000      5.8307960000
C                 -0.3820570000     -3.9135670000      5.4923630000
C                 -1.1790160000     -4.7084020000      6.5559360000
C                  0.5828040000     -4.8952050000      4.7993650000
C                  0.4738910000     -2.8365400000      6.2044060000
H                 -0.6116820000     -4.2035330000      2.7247880000
H                 -1.8802550000     -4.0385890000      7.0571920000
H                 -0.5019010000     -5.1565680000      7.2999660000
H                 -1.7429910000     -5.5167960000      6.0766870000
H                  1.2479210000     -5.3447770000      5.5491980000
H                  1.2041910000     -4.3915520000      4.0526000000
H                  0.0437590000     -5.7029320000      4.2949550000
H                 -0.1857970000     -2.1239480000      6.7028240000
H                  1.0873410000     -2.2989850000      5.4723880000
H                  1.1471450000     -3.2969450000      6.9447270000


