%chk=330-rad.chk
%nproc=8
%mem=30GB
#P UB3LYP/6-311++G(d,p) nosym  opt freq SCRF=(PCM,Solvent=n,n-DiMethylFormamide)

Radical

-1 2
C                  4.7372900000      0.2259260000      0.9495670000
C                  3.9497170000     -0.6044050000     -0.0813110000
C                  4.5911080000     -0.4931160000     -1.4772550000
C                  2.4708950000     -0.2464200000     -0.0985240000
C                  2.0291190000      1.0465790000     -0.4560880000
C                  0.6798840000      1.3549570000     -0.4671600000
C                 -0.3117020000      0.4089070000     -0.1271420000
C                  0.1274140000     -0.8908140000      0.2328240000
C                  1.5099000000     -1.1823510000      0.2370320000
C                 -0.8078840000     -1.9591900000      0.6056460000
O                 -0.3909090000     -3.0951470000      0.9187190000
C                 -2.2619430000     -1.6515800000      0.5994070000
O                 -3.0800150000     -2.5433690000      0.9117450000
C                 -2.6991600000     -0.2877340000      0.2206460000
C                 -4.0921630000      0.0524410000      0.2019220000
C                 -5.1963850000     -0.9201910000      0.5554360000
C                 -4.4775290000      1.3385670000     -0.1567150000
C                 -3.5398980000      2.3191060000     -0.5026900000
C                 -2.1955500000      2.0051410000     -0.4889130000
C                 -1.7420970000      0.7188120000     -0.1343590000
H                  4.3073340000      0.1153840000      1.9484370000
H                  4.7201300000      1.2909080000      0.6965240000
H                  5.7857670000     -0.0911620000      0.9895780000
H                  4.0140710000     -1.6544660000      0.2259790000
H                  4.0579270000     -1.1148360000     -2.2011390000
H                  5.6388680000     -0.8142120000     -1.4540360000
H                  4.5661970000      0.5383420000     -1.8432540000
H                  2.7462570000      1.8158710000     -0.7275410000
H                  0.3953140000      2.3612020000     -0.7490780000
H                  1.7881500000     -2.1921180000      0.5203160000
H                 -5.0853830000     -1.3077990000      1.5693290000
H                 -6.1659200000     -0.4174880000      0.4638840000
H                 -5.1836450000     -1.7995060000     -0.0904800000
H                 -5.5359080000      1.5834460000     -0.1669130000
H                 -3.8667330000      3.3168450000     -0.7791360000
H                 -1.4825180000      2.7734720000     -0.7587110000


