%chk=303.chk
%nproc=8
%mem=30GB
#P UB3LYP/6-311++G(d,p) nosym opt freq Int=Acc2E=11 SCRF=(PCM,Solvent=n,n-DiMethylFormamide)

Oxidized

0 1
C                 -2.90518300    4.00205000    4.46809200
 C                 -3.20750000    3.06872300    5.45507200
 C                 -2.36513800    1.97448800    5.65892200
 C                 -1.75812500    3.83910700    3.68651800
 C                 -0.90729500    2.73892800    3.88855000
 C                 -1.22118300    1.80924400    4.87855200
 C                 -1.42354000    4.81442200    2.64105600
 C                 -0.17514500    4.59596700    1.84489100
 C                  0.67520200    3.55449200    2.03549100
 C                  0.32788600    2.54287300    3.05363600
 O                 -2.09323600    5.80816300    2.37840400
 O                  1.02207900    1.54803900    3.22709300
 O                  0.04152700    5.53960800    0.91798200
 H                 -3.54721400    4.85656000    4.29470500
 H                 -4.09548700    3.19219400    6.06325600
 H                 -2.59999500    1.24755200    6.42754400
 H                 -0.56456400    0.96233200    5.03070900
 H                 -0.69333500    6.17925300    0.99321200
 C                  3.19606900    3.08041300    1.93312000
 C                  3.47979500    3.75165900    3.12950200
 C                  4.14134700    2.18106000    1.43532100
 C                  5.33019200    1.93939100    2.12700100
 C                  5.59848900    2.60343500    3.32249700
 C                  4.66706800    3.51696400    3.81934500
 H                  2.76738800    4.46694000    3.52836100
 H                  3.94765200    1.67569800    0.49812300
 H                  6.04822600    1.23198700    1.72603700
 H                  4.86589500    4.04881200    4.74346400
 H                  6.52218200    2.41673800    3.85877700
 C                  1.92437600    3.42737800    1.15478700
 H                  2.09717500    4.43565000    0.76937600
 N                  1.73319000    2.61151900   -0.05566300
 C                  1.13867800    1.27441600    0.07488900
 C                  1.13497400    0.55733600   -1.27549100
 C                  0.50248900   -0.83737600   -1.20927300
 C                  0.49343700   -1.56682600   -2.55746000
 C                 -0.13423900   -2.96390700   -2.49354300
 C                 -0.14993700   -3.69317600   -3.84176800
 H                  1.19069700    3.15229600   -0.72101700
 H                  0.10939000    1.31045600    0.46437000
 H                  1.72532600    0.70465800    0.79861300
 H                  2.16520100    0.48077800   -1.64171300
 H                  0.58924700    1.16841100   -2.00664300
 H                 -0.52695500   -0.75300900   -0.83846100
 H                  1.04425900   -1.44557000   -0.47356700
 H                  1.52248100   -1.64965700   -2.93038400
 H                 -0.05032400   -0.95948700   -3.29266500
 H                 -1.16183000   -2.88106000   -2.11616900
 H                  0.41214500   -3.57165300   -1.76053900
 H                  0.87722900   -3.77363700   -4.22083000
 H                 -0.69887400   -3.08651100   -4.57382100
 C                 -0.77431100   -5.09179500   -3.77661500
 C                 -0.79603600   -5.81952500   -5.12562500
 C                 -1.41871600   -7.21886900   -5.05957100
 C                 -1.44548400   -7.94488100   -6.40942800
 C                 -2.06716400   -9.34464200   -6.34287700
 C                 -2.09755600  -10.06924600   -7.69341700
 C                 -2.71907900  -11.46908800   -7.62667200
 C                 -2.75185100  -12.19284200   -8.97737500
 C                 -3.37358700  -13.59261200   -8.91157000
 C                 -3.40220900  -14.30720300  -10.26606400
 H                 -1.80003400   -5.01160300   -3.39352700
 H                 -0.22283200   -5.69950400   -3.04734700
 H                  0.22932800   -5.89843000   -5.50991700
 H                 -1.34915400   -5.21242500   -5.85418400
 H                 -2.44286800   -7.14019300   -4.67197500
 H                 -0.86352600   -7.82700700   -4.33346800
 H                 -0.42160500   -8.02273400   -6.79788600
 H                 -2.00177400   -7.33710100   -7.13499800
 H                 -3.09017500   -9.26695700   -5.95208800
 H                 -1.50942200   -9.95323700   -5.61911700
 H                 -1.07471900  -10.14672600   -8.08465300
 H                 -2.65576200   -9.46074900   -8.41689200
 H                 -3.74141700  -11.39171400   -7.23403900
 H                 -2.16000600  -12.07819400   -6.90435400
 H                 -1.72981000  -12.27139500   -9.37089600
 H                 -3.31114500  -11.58456900   -9.70042800
 H                 -4.39481500  -13.51479800   -8.51876100
 H                 -2.81474400  -14.20116200   -8.19004000
 H                 -3.98327800  -13.73900500  -10.99968100
 H                 -3.85108700  -15.30133300  -10.18447300
 H                 -2.39149800  -14.43051100  -10.66846300









