$molecule
-1 2
C                  5.0723530000     -2.4798040000      0.2729590000
C                  5.8102150000     -1.5220010000     -0.3842780000
C                  5.1230290000     -0.4965260000     -1.0735050000
C                  3.6590840000     -2.4587670000      0.2630700000
C                  2.9850150000     -1.4168020000     -0.4361050000
C                  3.7450960000     -0.4345210000     -1.1009580000
C                  2.9281540000     -3.5086260000      0.9751300000
C                  1.4646310000     -3.4218690000      0.9186510000
C                  0.7905310000     -2.3800030000      0.2193700000
C                  1.5215120000     -1.3300940000     -0.4927420000
C                  0.7045530000     -4.4039900000      1.5837010000
C                 -0.6226820000     -2.3589820000      0.2093930000
C                 -1.3605790000     -3.3167370000      0.8667600000
O                  3.5150370000     -4.4208930000      1.5972040000
O                  0.9345930000     -0.4178800000     -1.1147700000
H                  5.5556890000     -3.2801730000      0.8202430000
H                 -2.4428970000     -3.3051600000      0.8522090000
H                  3.2213540000      0.3596900000     -1.6179370000
H                  1.2283300000     -5.1980900000      2.1008290000
H                 -1.1060280000     -1.5587140000     -0.3380290000
C                 -0.6733940000     -4.3419490000      1.5562110000
S                  6.0673870000      0.7167650000     -1.9736610000
H                  6.8925350000     -1.5336730000     -0.3698670000
S                 -1.6176340000     -5.5550940000      2.4568810000
O                 -0.7622520000     -6.7077080000      2.7528430000
O                 -2.9253070000     -5.7540970000      1.8243740000
N                 -1.9832390000     -4.7260830000      3.9088170000
H                 -1.2244180000     -4.8447280000      4.5748560000
H                 -2.8435610000     -5.1195780000      4.2814310000
O                  5.2118270000      1.8691020000     -2.2701690000
O                  7.3746920000      0.9163300000     -1.3405520000
N                  6.4342110000     -0.1123500000     -3.4250070000
H                  7.2941420000      0.2817390000     -3.7978140000
H                  5.6752790000      0.0043570000     -4.0912170000
$end
$rem
   MAX_SCF_CYCLES=200
   BASIS  =  6-311++G(d,p)
   GUI  =  2
   JOB_TYPE  =  SP
   METHOD  =  B3LYP
   SOLVENT_METHOD = COSMO
$end
$solvent
   dielectric 37.219
   opticaldielectric 1.43
$end





