%chk=339-an-PCM.chk
%nproc=8
%mem=30GB
#P UB3LYP/6-311++G(d,p) SCRF=(PCM,Solvent=n,n-DiMethylFormamide)

Reduced 

-2 1
O                 -0.0187140000     -2.5513460000     -0.5995570000
C                 -0.0199610000     -1.3024690000     -0.2401890000
C                  1.2030120000     -0.5985380000      0.0433800000
C                  2.4365900000     -1.3262050000      0.0861200000
C                  3.6119710000     -0.7700500000      0.5378140000
C                  3.6624600000      0.5836580000      0.9796210000
C                  2.5076680000      1.3527020000      0.8795460000
C                  1.3193840000      0.8039350000      0.3931950000
S                 -0.0201460000      1.8817110000      0.0407370000
O                 -0.0132180000      2.2768620000     -1.4000390000
C                 -1.3637060000      0.8048920000      0.3805580000
C                 -2.5561130000      1.3545060000      0.8557300000
C                 -3.7123420000      0.5862860000      0.9449410000
C                 -3.6586700000     -0.7674540000      0.5036060000
C                 -2.4794950000     -1.3244460000      0.0629680000
C                 -1.2450470000     -0.5976640000      0.0318490000
H                  2.3815080000     -2.3622540000     -0.2314450000
H                  4.5159370000     -1.3776270000      0.5678340000
H                  4.5844340000      1.0157470000      1.3584110000
H                  2.5106440000      2.4009510000      1.1640240000
H                 -2.5610090000      2.4027550000      1.1401810000
H                 -4.6375260000      1.0190300000      1.3150570000
H                 -4.5633150000     -1.3743820000      0.5251100000
H                 -2.4221740000     -2.3605290000     -0.2540900000
O                 -0.0241140000      3.0537140000      0.9717190000





