$molecule
-1 2
C                  0.2527770000     -0.5762300000     -0.0760310000
C                 -0.3225080000     -1.7416750000     -0.5367480000
C                 -1.7491840000     -1.9056440000     -0.6130500000
O                 -2.2829930000     -2.9632550000     -1.0335060000
C                 -2.5706090000     -0.7588290000     -0.1685780000
C                 -3.9731430000     -0.8443290000     -0.2127050000
C                 -4.7687020000      0.2127060000      0.1969040000
C                 -4.1704650000      1.3987270000      0.6676850000
C                 -2.7931580000      1.5059590000      0.7201520000
C                 -1.9669270000      0.4383400000      0.3064950000
C                 -0.5201930000      0.5712510000      0.3693390000
O                  0.0710700000      1.6178390000      0.7843030000
H                  0.2959650000     -2.5691910000     -0.8544830000
H                 -4.4034370000     -1.7695020000     -0.5794240000
H                 -5.8507560000      0.1294250000      0.1562210000
H                 -4.7927350000      2.2288450000      0.9896170000
H                 -2.3095140000      2.4074550000      1.0786260000
N                  1.6279280000     -0.3157040000      0.0273870000
C                  2.7071040000     -1.0991290000     -0.2666230000
N                  3.9277550000     -0.4615300000     -0.0029380000
C                  5.1497860000     -1.0432570000     -0.5283060000
O                  2.6684430000     -2.2477900000     -0.6894560000
H                  1.7577000000      0.6165220000      0.4213920000
H                  3.9008910000      0.5466520000      0.0372720000
H                  5.1342840000     -2.1165170000     -0.3432410000
H                  6.0075030000     -0.6063370000     -0.0107160000
H                  5.2722670000     -0.8919500000     -1.6100730000
$end

$rem
   BASIS  =  6-311++G(d,p)
   GUI  =  2
   JOB_TYPE  =  SP
   METHOD  =  B3LYP
   SCF_CONVERGENCE  = 8
   SOLVENT_METHOD = sm12
$end

$smx
   solvent dimethylformamide
   charges CM5
$end





