$molecule
-1 2
C                  5.8522400000     -5.5618090000      0.8701150000
C                  6.3495060000     -5.5484900000     -0.4210040000
C                  5.9090050000     -4.5692090000     -1.3335070000
C                  4.9059520000     -4.6073810000      1.2940020000
C                  4.4630730000     -3.6222520000      0.3755200000
C                  4.9802390000     -3.6241980000     -0.9352940000
C                  4.3957640000     -4.6468210000      2.6729030000
C                  3.4233470000     -3.6346110000      3.0376710000
C                  2.9967140000     -2.6633310000      2.1376960000
C                  3.4773560000     -2.6075070000      0.7729220000
O                  4.7966590000     -5.5269820000      3.4855460000
O                  3.0752320000     -1.7316360000     -0.0444630000
H                  7.0785290000     -6.2913860000     -0.7320830000
C                  1.9822880000     -1.6086340000      2.5192580000
H                  6.2987270000     -4.5575410000     -2.3474790000
C                  2.9062230000     -3.6852630000      4.4572280000
C                  0.5398220000     -1.9800420000      2.1221890000
C                 -0.4810580000     -0.8895570000      2.4646390000
C                 -1.9191410000     -1.2416930000      2.0668810000
C                 -2.9339090000     -0.1450840000      2.4076220000
H                  6.1727170000     -6.3025130000      1.5938590000
H                  4.6217510000     -2.8591450000     -1.6146400000
H                  2.2450640000     -0.6824900000      1.9985380000
H                  2.0192630000     -1.4092820000      3.5953460000
H                  3.2779360000     -4.5906610000      4.9376560000
H                  1.8114850000     -3.6844220000      4.4981730000
H                  3.2496640000     -2.8247120000      5.0462870000
H                  0.2538940000     -2.9169400000      2.6172160000
H                  0.5232380000     -2.1736080000      1.0449360000
H                 -0.1884720000      0.0440700000      1.9659260000
H                 -0.4477500000     -0.6816840000      3.5436480000
H                 -2.2121730000     -2.1756830000      2.5627390000
H                 -1.9523520000     -1.4474510000      0.9901090000
H                 -2.9469110000      0.0603680000      3.4835240000
H                 -3.9496190000     -0.4267080000      2.1108810000
H                 -2.6866130000      0.7922300000      1.8980000000
$end

$rem
   BASIS  =  6-311++G(d,p)
   GUI  =  2
   JOB_TYPE  =  SP
   METHOD  =  B3LYP
   SCF_CONVERGENCE  = 8
   SOLVENT_METHOD = sm12
$end

$smx
   solvent dimethylformamide
   charges CM5
$end





