%chk=075-rad.chk
%nproc=8
%mem=30GB
#P UB3LYP/6-311++G(d,p) nosym  opt freq

Radical

-1 2
C                  1.5694720000      1.0944240000     -1.5708570000
C                  0.1587620000      0.8880730000     -1.3340820000
C                 -0.3199360000      0.1723960000     -0.2593260000
C                  0.5706370000     -0.4342810000      0.7262650000
C                  1.9854280000     -0.2172850000      0.4744070000
C                  2.4545150000      0.4927650000     -0.5922620000
O                  1.9969130000      1.7537740000     -2.5610600000
O                  0.1637910000     -1.0918690000      1.7161720000
C                 -1.7946450000     -0.0024410000     -0.0748360000
F                 -2.5238650000      0.6094030000     -1.0588290000
F                 -2.1937270000     -1.3032810000     -0.0917310000
F                 -2.2617500000      0.5192070000      1.0919190000
H                 -0.5212340000      1.3294260000     -2.0528510000
H                  2.6632670000     -0.6612570000      1.1978910000
H                  3.5205120000      0.6342680000     -0.7482230000


