$molecule
-1 2
C                  4.3904250000     -0.1112880000      0.0160680000
C                  2.9449670000      0.3099520000     -0.1007650000
C                  2.6141270000      1.6443970000     -0.4354130000
C                  1.3015060000      2.0491310000     -0.5355630000
C                  0.2382050000      1.1566260000     -0.3019530000
C                 -1.1351480000      1.6521110000     -0.4231320000
O                 -1.3805490000      2.8427310000     -0.7323650000
C                 -2.1979140000      0.6808610000     -0.1620450000
C                 -3.5463450000      1.0862560000     -0.2661090000
C                 -4.5774400000      0.2011510000     -0.0237730000
C                 -4.2893270000     -1.1333810000      0.3361180000
C                 -2.9782860000     -1.5511020000      0.4448890000
C                 -1.9075510000     -0.6634870000      0.1995870000
C                 -0.5354280000     -1.1593950000      0.3298990000
O                 -0.2844020000     -2.3375850000      0.6734640000
C                  0.5275500000     -0.1993460000      0.0445050000
C                  1.8926550000     -0.5617860000      0.1190410000
N                  2.2946120000     -1.9655520000      0.4285200000
O                  2.4024960000     -2.7393370000     -0.5120390000
O                  2.6323960000     -2.2114720000      1.5787810000
H                  5.0413620000      0.6512590000     -0.4168590000
H                  4.5838000000     -1.0546140000     -0.5016510000
H                  4.6802720000     -0.2503460000      1.0624600000
H                  3.4191650000      2.3490300000     -0.6202650000
H                  1.0432770000      3.0684870000     -0.7972760000
H                 -3.7367900000      2.1167900000     -0.5425570000
H                 -5.6090720000      0.5290980000     -0.1088710000
H                 -5.0999540000     -1.8301230000      0.5270630000
H                 -2.7286080000     -2.5690640000      0.7202410000
$end
$rem
   MAX_SCF_CYCLES=200
   BASIS  =  6-311++G(d,p)
   GUI  =  2
   JOB_TYPE  =  SP
   METHOD  =  B3LYP
   SOLVENT_METHOD = COSMO
$end
$solvent
   dielectric 37.219
   opticaldielectric 1.43
$end





