%chk=073-rad.chk
%nproc=8
%mem=30GB
#P UB3LYP/6-311++G(d,p) nosym  opt freq

Radical

-1 2
C                  0.8717710000      1.2266830000     -1.3855020000
C                 -0.5199460000      1.1468910000     -1.8521360000
C                 -1.4257680000      0.4493580000     -1.0824030000
C                 -1.0740640000     -0.2955340000      0.1153030000
C                  0.3105600000     -0.1908550000      0.5980160000
C                  1.1948810000      0.5820910000     -0.1232680000
O                  1.7414440000      1.8379720000     -2.0502730000
O                 -1.9187100000     -0.9946650000      0.7233740000
S                  2.9241070000      0.7951050000      0.4051350000
C                  3.2676320000      2.5789290000      0.3265600000
C                  3.9765690000      3.1034750000     -0.7488390000
C                  2.8780040000      3.3760100000      1.3989020000
C                  3.1933930000      4.7342680000      1.3853600000
C                  4.3020610000      4.4575520000     -0.7454770000
C                  3.9073660000      5.2732530000      0.3159220000
O                  3.8359130000      0.1171250000     -0.5272860000
O                  3.0172080000      0.4643950000      1.8407850000
H                  4.2458400000      2.4538540000     -1.5696580000
H                  2.3500600000      2.9335680000      2.2343730000
H                  4.8543240000      4.8784830000     -1.5785950000
H                  2.8901050000      5.3656960000      2.2134310000
H                  4.1552850000      6.3295770000      0.3083250000
S                 -3.1770250000      0.3148010000     -1.5614520000
C                 -4.1466830000      0.7117270000     -0.0754870000
C                 -4.3668370000      2.0507590000      0.2335640000
C                 -4.7163950000     -0.3106280000      0.6757720000
C                 -5.5258860000      0.0200160000      1.7596500000
C                 -5.1647630000      2.3720800000      1.3311050000
C                 -5.7460150000      1.3577640000      2.0908810000
H                 -3.9311600000      2.8247600000     -0.3857950000
H                 -4.5068540000     -1.3377350000      0.4122520000
H                 -5.9755440000     -0.7683140000      2.3534580000
H                 -5.3387170000      3.4123140000      1.5841550000
H                 -6.3696440000      1.6091980000      2.9424720000
O                 -3.4994060000     -1.0636580000     -1.9570630000
O                 -3.4868320000      1.4055260000     -2.5067130000
C                 -0.7971300000      1.8388410000     -3.1616680000
C                  0.6143750000     -0.9769240000      1.8471850000
H                  0.1566230000      2.1306200000     -3.5985880000
H                 -1.4120510000      2.7303490000     -3.0162690000
H                 -1.3464900000      1.1975390000     -3.8511840000
H                 -0.2407330000     -1.6163080000      2.0608310000
H                  0.7887560000     -0.3151890000      2.6990620000
H                  1.5165080000     -1.5793080000      1.7382950000


