$molecule
0 1
C                 -3.4199760000     -0.7289220000     -0.3823230000
C                 -2.0325970000     -0.2644570000     -0.0651780000
C                 -1.7584680000      0.6980350000      0.8352780000
C                 -0.3932030000      1.1507830000      1.1434330000
O                 -0.2159800000      2.0435370000      1.9857690000
C                  0.7259650000      0.5238610000      0.4360480000
C                  2.0538270000      0.9271670000      0.7010140000
O                  2.3492850000      1.8815500000      1.5918570000
C                  3.1122360000      0.3118170000      0.0109570000
C                  2.8522040000     -0.6798500000     -0.9190400000
C                  1.5404720000     -1.0888620000     -1.1911370000
C                  0.4846900000     -0.4907380000     -0.5178180000
C                 -0.9125980000     -0.9281240000     -0.8094190000
O                 -1.1565560000     -1.7999820000     -1.6272870000
H                 -4.1605850000     -0.1884780000      0.2079130000
H                 -3.5179270000     -1.8007960000     -0.1895690000
H                 -3.6357810000     -0.5905060000     -1.4453290000
H                 -2.5447020000      1.1989620000      1.3909390000
H                  1.4977090000      2.1993530000      1.9765670000
H                  4.1228580000      0.6352890000      0.2285870000
H                  3.6782150000     -1.1460860000     -1.4440790000
H                  1.3309110000     -1.8635550000     -1.9171820000
$end

$rem
   BASIS  =  6-311++G(d,p)
   GUI  =  2
   JOB_TYPE  =  SP
   METHOD  =  B3LYP
   SCF_CONVERGENCE  = 8
   SOLVENT_METHOD = sm12
$end

$smx
   solvent dimethylformamide
   charges CM5
$end





