%chk=119.chk
%nproc=8
%mem=30GB
#P UB3LYP/genecp nosym opt freq

Oxidized

0 1
C          6.90411       -1.63971       -0.25681
C          7.46656       -0.66919       -1.08763
C          6.66171        0.32361       -1.64570
C          5.29268        0.34799       -1.37413
C          4.72604       -0.62493       -0.54067
C          5.53051       -1.61729        0.01716
C          4.94450       -2.64801        0.89714
C          3.49557       -2.61547        1.17955
C          2.69142       -1.62261        0.62128
C          3.27711       -0.59146       -0.25888
C          2.93216       -3.59078        2.01402
C          1.56349       -3.56243        2.28255
C          0.75392       -2.57128        1.72668
C          1.31780       -1.60041        0.89537
O          5.65054       -3.52079        1.38814
O          2.56785        0.27985       -0.74802
H          7.53927       -2.41148        0.17500
H          4.67109        1.12638       -1.81367
H          3.56606       -4.36307        2.44649
H          0.68266       -0.82835        0.46333
I          0.72371       -5.00601        3.51891
H          8.53352       -0.68818       -1.29928
H          7.10015        1.07995       -2.29319
H         -0.31443       -2.54034        1.92982

H C O 0
6-311++G(d,p)
****
I 0
def2TZVP
****

I 0
def2TZVP















