$molecule
-2 1
O                 -4.3546210000      1.0094620000     -1.6106680000
C                 -3.1844130000      0.5749030000     -0.9720220000
C                 -1.9358330000      0.9871800000     -1.3955470000
C                 -0.7575160000      0.5424440000     -0.7432330000
C                  0.5370030000      1.0057730000     -1.2274300000
O                  0.6396830000      1.8007530000     -2.2223460000
C                  1.6876840000      0.5034640000     -0.5045290000
C                  2.9873700000      0.8946080000     -0.8969940000
C                  4.1272130000      0.4534790000     -0.2519600000
C                  3.9966990000     -0.4348970000      0.8585640000
C                  2.7548420000     -0.8446750000      1.2789950000
C                  1.5538160000     -0.4044160000      0.6303330000
C                  0.2902760000     -0.8149300000      1.0501120000
O                  0.1699820000     -1.6775930000      2.1291160000
C                 -0.8692660000     -0.3518530000      0.3762140000
C                 -2.1848330000     -0.7736570000      0.8065670000
O                 -2.3959450000     -1.5901370000      1.8202740000
C                 -3.3110360000     -0.2964250000      0.1173470000
O                 -4.5350540000     -0.7446910000      0.5883110000
H                 -4.0566120000      1.5896570000     -2.3182560000
H                 -1.8150110000      1.6628190000     -2.2386270000
H                  3.0475280000      1.5706230000     -1.7450670000
H                  5.1122760000      0.7760960000     -0.5823830000
H                  4.8873190000     -0.7898220000      1.3755190000
H                  2.6527190000     -1.5196220000      2.1224940000
H                 -0.8142200000     -1.8152130000      2.2259510000
H                 -4.2300490000     -1.3133300000      1.3292630000
$end

$rem
   BASIS  =  6-311++G(d,p)
   GUI  =  2
   JOB_TYPE  =  SP
   METHOD  =  B3LYP
   SCF_CONVERGENCE  = 8
   SOLVENT_METHOD = sm12
$end

$smx
   solvent dimethylformamide
   charges CM5
$end





