$molecule
0 1
C                  5.0797030000     -2.4449790000      0.3199690000
C                  5.8188840000     -1.4927630000     -0.3690730000
C                  5.1471940000     -0.5196680000     -1.1110920000
C                  3.6826380000     -2.4244720000      0.2706520000
C                  3.0213180000     -1.4318170000     -0.4728490000
C                  3.7623260000     -0.4697700000     -1.1643060000
C                  2.9188880000     -3.4651590000      1.0237320000
C                  1.4284950000     -3.4067380000      0.9557170000
C                  0.7671740000     -2.4141220000      0.2121510000
C                  1.5309280000     -1.3734060000     -0.5408840000
C                  0.6874940000     -4.3687630000      1.6471990000
C                 -0.6298830000     -2.3936560000      0.1627940000
C                 -1.3690680000     -3.3458530000      0.8518740000
O                  3.4905990000     -4.3240920000      1.6701090000
O                  0.9592170000     -0.5144750000     -1.1872630000
H                  5.5677740000     -3.2125010000      0.9073470000
H                 -2.4509040000     -3.3520440000      0.8083280000
H                  3.2447090000      0.3034830000     -1.7177170000
H                  1.2051530000     -5.1419630000      2.2006470000
H                 -1.1179710000     -1.6261650000     -0.4246130000
C                 -0.6973750000     -4.3188960000      1.5939410000
S                  6.1083820000      0.7154870000     -2.0119080000
H                  6.9007220000     -1.4865870000     -0.3255390000
S                 -1.6585800000     -5.5540680000      2.4947170000
O                 -0.8242560000     -6.7425930000      2.6286670000
O                 -2.9889440000     -5.5844400000      1.8951020000
N                 -1.8167760000     -4.8649380000      4.0272490000
H                 -1.3449590000     -5.4286000000      4.7270580000
H                 -2.7943620000     -4.7120320000      4.2526280000
O                  5.2739330000      1.9038940000     -2.1460690000
O                  7.4386700000      0.7460940000     -1.4121410000
N                  6.2667920000      0.0262280000     -3.5442520000
H                  7.2443170000     -0.1271160000     -3.7695300000
H                  5.7950260000      0.5895820000     -4.2443250000
$end
$rem
   MAX_SCF_CYCLES=200
   BASIS  =  6-311++G(d,p)
   GUI  =  2
   JOB_TYPE  =  SP
   METHOD  =  B3LYP
   SOLVENT_METHOD = PCM
$end
$pcm
   theory = CPCM
$end
$solvent
   dielectric 37.219
   opticaldielectric 1.43
$end






