$molecule
0 1
C                 -1.6215830000     -1.4055470000     -0.1355960000
C                 -0.3198500000     -0.6560130000     -0.0929520000
C                 -0.2514980000      0.6778720000      0.1360370000
C                 -1.4715330000      1.5243050000      0.3665490000
C                  1.0723840000      1.3731980000      0.1682030000
O                  1.1588650000      2.5743850000      0.3735070000
C                  2.2989730000      0.5705160000     -0.0562430000
C                  2.2316150000     -0.7444910000     -0.2821330000
C                  0.9275850000     -1.4500260000     -0.3172420000
O                  0.8908760000     -2.6531770000     -0.5262370000
H                 -1.4474190000     -2.4622540000     -0.3307880000
H                 -2.2764890000     -1.0078780000     -0.9174810000
H                 -2.1605860000     -1.3077090000      0.8121100000
H                 -2.0328380000      1.1725490000      1.2380840000
H                 -2.1498620000      1.4744360000     -0.4911360000
H                 -1.1903060000      2.5633560000      0.5291030000
H                  3.2343720000      1.1180310000     -0.0239180000
H                  3.1072940000     -1.3615530000     -0.4498670000
$end
$rem
   MAX_SCF_CYCLES=200
   BASIS  =  6-311++G(d,p)
   GUI  =  2
   JOB_TYPE  =  SP
   METHOD  =  B3LYP
   SOLVENT_METHOD = COSMO
$end
$solvent
   dielectric 37.219
   opticaldielectric 1.43
$end





