$molecule
-1 2
O                  0.0022440000     -2.5336490000     -0.4294580000
C                  0.0324690000     -1.2932110000     -0.2186530000
C                  1.3208560000     -0.6374100000     -0.0649950000
C                  2.4484120000     -1.5187760000     -0.1687140000
C                  3.7505330000     -1.1039780000     -0.0541700000
C                  4.0416220000      0.2674520000      0.1794540000
C                  2.9879240000      1.1483540000      0.2847370000
C                  1.6239410000      0.7627630000      0.1734000000
C                  0.6776180000      1.8182710000      0.3086270000
C                 -0.6877130000      1.8234660000      0.2633360000
C                 -1.6415800000      0.7520550000      0.0653220000
C                 -3.0049760000      1.1362410000      0.0886560000
C                 -4.0495740000      0.2311820000     -0.0845360000
C                 -3.7532590000     -1.1089980000     -0.2900540000
C                 -2.4124060000     -1.5122820000     -0.3181480000
C                 -1.3403060000     -0.6256960000     -0.1469580000
H                  2.2199570000     -2.5612440000     -0.3468780000
H                  4.5576480000     -1.8259690000     -0.1424540000
H                  5.0658430000      0.6142200000      0.2726050000
H                  3.1924000000      2.2015230000      0.4628270000
H                  1.1297760000      2.7942700000      0.4787540000
H                 -1.1529120000      2.7969780000      0.4020590000
H                 -3.2332460000      2.1859370000      0.2496930000
H                 -5.0787150000      0.5784550000     -0.0576870000
H                 -4.5439290000     -1.8399710000     -0.4286420000
H                 -2.1526300000     -2.5499850000     -0.4781230000
$end
$rem
   MAX_SCF_CYCLES=200
   BASIS  =  6-311++G(d,p)
   GUI  =  2
   JOB_TYPE  =  SP
   METHOD  =  B3LYP
   SOLVENT_METHOD = PCM
$end
$pcm
   theory = CPCM
$end
$solvent
   dielectric 37.219
   opticaldielectric 1.43
$end






