$molecule
-1 2
O                  3.0563620000     -2.1970930000      0.2084400000
C                  2.7744690000     -0.8788740000      0.2556100000
C                  3.8057600000      0.0379730000      0.4171720000
C                  3.5204300000      1.4118880000      0.4670480000
C                  2.2202540000      1.8736030000      0.3573530000
C                  1.1549790000      0.9684340000      0.1929400000
C                 -0.2174820000      1.5044520000      0.0800130000
O                 -0.4141480000      2.7345830000      0.1308020000
C                 -1.2945500000      0.5179590000     -0.0900990000
C                 -2.6625460000      0.8954120000     -0.2113780000
O                 -3.0078760000      2.2208650000     -0.1703820000
C                 -3.6614590000     -0.0572750000     -0.3714460000
C                 -3.3480880000     -1.4270390000     -0.4184580000
C                 -2.0385390000     -1.8336220000     -0.3049460000
C                 -1.0019510000     -0.8865390000     -0.1411280000
C                  0.3560990000     -1.3866970000     -0.0276770000
O                  0.6014100000     -2.6460600000     -0.0749840000
C                  1.4216600000     -0.4259470000      0.1399620000
H                  2.1575450000     -2.6458420000      0.0877260000
H                  4.8211270000     -0.3333970000      0.5021320000
H                  4.3361810000      2.1180190000      0.5937000000
H                  1.9844000000      2.9294910000      0.3939310000
H                 -3.9651570000      2.2681280000     -0.2682960000
H                 -4.6950330000      0.2713770000     -0.4605040000
H                 -4.1437920000     -2.1548160000     -0.5442110000
H                 -1.7600530000     -2.8789820000     -0.3366400000
$end

$rem
   BASIS  =  6-311++G(d,p)
   GUI  =  2
   JOB_TYPE  =  SP
   METHOD  =  B3LYP
   SCF_CONVERGENCE  = 8
   SOLVENT_METHOD = sm12
$end

$smx
   solvent dimethylformamide
   charges CM5
$end





