$molecule
0 1
O                  4.5484120000     -1.4034570000     -0.8459570000
C                  3.4516640000     -0.6522260000     -0.5244250000
C                  3.5090420000      0.6695460000     -0.1537530000
C                  2.3272490000      1.3606130000      0.1589920000
O                  2.4499190000      2.6434190000      0.5120530000
C                  1.0849630000      0.6920100000      0.0906110000
C                 -0.1303500000      1.4441030000      0.4238880000
O                 -0.0466130000      2.6393520000      0.7557850000
C                 -1.4373080000      0.7595920000      0.3572700000
C                 -2.6338520000      1.4281000000      0.6648890000
O                 -2.6281860000      2.7338840000      1.0358730000
C                 -3.8537160000      0.7316990000      0.5863980000
C                 -3.9061850000     -0.5911530000      0.2150350000
C                 -2.7269860000     -1.2872970000     -0.0987850000
O                 -2.8509200000     -2.5722890000     -0.4522610000
C                 -1.4879170000     -0.6126730000     -0.0283370000
C                 -0.2654820000     -1.3672650000     -0.3629720000
O                 -0.3465440000     -2.5596600000     -0.6945130000
C                  1.0394250000     -0.6812350000     -0.2958360000
C                  2.2240270000     -1.3572780000     -0.6045910000
O                  2.2559170000     -2.6545370000     -0.9769720000
H                  5.3565700000     -0.8844150000     -0.7774140000
H                  4.4514620000      1.2029310000     -0.0944710000
H                  1.5227570000      2.9646740000      0.6943980000
H                 -3.5347350000      3.0145400000      1.2044190000
H                 -4.7732970000      1.2582600000      0.8264940000
H                 -4.8477960000     -1.1229680000      0.1561000000
H                 -1.9306700000     -2.8999140000     -0.6356150000
H                  3.1791510000     -2.8963560000     -1.1363040000
$end
$rem
   MAX_SCF_CYCLES=200
   BASIS  =  6-311++G(d,p)
   GUI  =  2
   JOB_TYPE  =  SP
   METHOD  =  B3LYP
   SOLVENT_METHOD = COSMO
$end
$solvent
   dielectric 37.219
   opticaldielectric 1.43
$end





