%chk=101-rad.chk
%nproc=8
%mem=30GB
#P UB3LYP/6-311++G(d,p) nosym  opt freq

Radical

-1 2
C         -2.20192       -4.99532        0.63818
C         -0.98659       -5.55613       -0.00443
C         -0.08676       -4.79438       -0.64729
C         -0.36492       -3.31795       -0.75949
C         -2.40908       -3.50786        0.62860
C         -1.55266       -2.75387       -0.07635
O         -3.05544       -5.69859        1.17816
O          0.42277       -2.62496       -1.40433
N         -3.56729       -3.05770        1.30434
N          1.09382       -5.19716       -1.30291
C         -3.50624       -2.74325        2.77154
C         -2.62996       -1.53325        3.06332
C         -4.93226       -2.44924        3.28602
C          2.20101       -5.92942       -0.63166
C          2.89338       -5.03144        0.38822
C          3.20450       -6.42768       -1.69960
N         -5.71571       -1.77019        2.37414
N          2.58106       -6.88219       -2.84692
C          3.33255       -7.29649       -4.00137
C         -7.09741       -1.46636        2.63309
O         -5.30377       -2.74897        4.41635
O          4.41893       -6.46525       -1.53019
Cl        -0.84592       -7.28334        0.06957
Cl        -1.79651       -1.04806       -0.27295
H         -4.23239       -3.84867        1.25791
H          1.48901       -4.37001       -1.78050
H         -3.13696       -3.62563        3.30792
H         -2.65972       -1.28381        4.12992
H         -2.96851       -0.64808        2.51424
H         -1.58518       -1.72284        2.79898
H          1.82832       -6.82566       -0.12821
H          2.19527       -4.70063        1.16423
H          3.31128       -4.13814       -0.08953
H          3.71615       -5.55983        0.88166
H         -5.35009       -1.70779        1.42728
H          1.60573       -6.61479       -2.95041
H          4.19456       -7.89647       -3.69779
H          3.67907       -6.40519       -4.53094
H          2.67836       -7.88238       -4.65080
H         -7.69445       -2.35888        2.42884
H         -7.40561       -0.65541        1.96940
H         -7.23333       -1.16895        3.67622









