$molecule
-2 1
C                 -3.7585500000      1.7610710000     -0.3767200000
C                 -2.5203320000      0.9268520000     -0.1346320000
C                 -1.2641710000      1.4296220000     -0.4123190000
C                 -0.0692820000      0.6874560000     -0.2404370000
C                  1.2063870000      1.3055670000     -0.5527730000
O                  1.3069720000      2.5091240000     -0.9787850000
C                  2.3605320000      0.4539970000     -0.3372400000
C                  3.6563790000      0.9609380000     -0.6083740000
C                  4.7967570000      0.2054550000     -0.4253690000
C                  4.6850960000     -1.1309850000      0.0520180000
C                  3.4380640000     -1.6534450000      0.3288630000
C                  2.2473870000     -0.9038300000      0.1554580000
C                  0.9708910000     -1.5182070000      0.4665580000
O                  0.8700770000     -2.7217860000      0.8925170000
C                 -0.1818080000     -0.6630700000      0.2499080000
C                 -1.4804030000     -1.1618050000      0.5200230000
C                 -2.6335650000     -0.4237800000      0.3373990000
C                 -3.9867820000     -1.0049240000      0.6822750000
H                 -3.4882040000      2.7757290000     -0.6831470000
H                 -4.4038950000      1.3388760000     -1.1681500000
H                 -4.3914180000      1.8405780000      0.5132710000
H                 -1.1489870000      2.4417350000     -0.7898170000
H                  3.7078200000      1.9828170000     -0.9717280000
H                  5.7761480000      0.6269010000     -0.6451430000
H                  5.5787870000     -1.7352110000      0.1981470000
H                  3.3193650000     -2.6687580000      0.6948470000
H                 -1.5337760000     -2.1799940000      0.8949940000
H                 -4.4739900000     -0.4724670000      1.5190700000
H                 -4.6910650000     -0.9532910000     -0.1545100000
H                 -3.8944330000     -2.0551640000      0.9737970000
$end
$rem
   MAX_SCF_CYCLES=200
   BASIS  =  6-311++G(d,p)
   GUI  =  2
   JOB_TYPE  =  SP
   METHOD  =  B3LYP
   SOLVENT_METHOD = COSMO
$end
$solvent
   dielectric 37.219
   opticaldielectric 1.43
$end





