%chk=054-an-PCM.chk
%nproc=8
%mem=30GB
#P UB3LYP/6-311++G(d,p) SCRF=(PCM,Solvent=n,n-DiMethylFormamide)

Reduced 

-2 1
C                 -0.5688350000      2.1128880000     -0.0763840000
C                 -1.7734310000      1.3135780000     -0.0613500000
C                 -1.7165630000     -0.0949990000     -0.0068860000
C                 -0.4638410000     -0.7998920000      0.0280940000
C                  0.7348180000     -0.0058480000      0.0159180000
C                  0.6900990000      1.4031890000     -0.0373120000
O                 -0.6156800000      3.4179160000     -0.1306380000
O                 -0.4164140000     -2.1115990000      0.0714850000
C                  1.9097490000      2.3286060000     -0.0725070000
C                  2.7527970000      2.3506880000      1.2221940000
C                  2.7940310000      2.2048320000     -1.3321040000
C                  2.0631030000     -0.7662830000      0.0743070000
C                  2.2119300000     -1.5826770000      1.3772270000
C                  2.2751340000     -1.6712390000     -1.1591380000
C                 -3.0562820000      2.1477640000     -0.1236370000
C                 -3.9209550000      2.1140330000      1.1565880000
C                 -3.9071600000      1.9543920000     -1.3973310000
C                 -2.9870800000     -0.9496850000      0.0294470000
C                 -3.1125220000     -1.8667150000     -1.2068730000
C                 -3.0985020000     -1.7757360000      1.3300880000
H                  1.4413630000      3.3164480000     -0.1353370000
H                  3.5038750000      3.1572610000      1.1863520000
H                  3.2874730000      1.4137260000      1.4110000000
H                  2.1022640000      2.5375700000      2.0820090000
H                  3.3353970000      1.2554300000     -1.3961700000
H                  3.5408290000      3.0132170000     -1.3630840000
H                  2.1717860000      2.2898700000     -2.2284960000
H                  2.8769210000     -0.0407950000      0.0705090000
H                  2.1731060000     -0.9197780000      2.2493390000
H                  3.1735110000     -2.1197350000      1.4003070000
H                  1.3906180000     -2.2998070000      1.4424780000
H                  1.4615150000     -2.3981800000     -1.2096120000
H                  3.2407290000     -2.1999610000     -1.1003950000
H                  2.2713570000     -1.0733970000     -2.0776330000
H                 -2.6600320000      3.1668050000     -0.1837640000
H                 -4.7306960000      2.8607140000      1.1024750000
H                 -3.3013370000      2.3552310000      2.0256850000
H                 -4.3859210000      1.1402010000      1.3434190000
H                 -4.7078630000      2.7081900000     -1.4470510000
H                 -4.3798440000      0.9692020000     -1.4637670000
H                 -3.2767390000      2.0771730000     -2.2836230000
H                 -3.8509660000     -0.2848990000      0.0119650000
H                 -4.0393890000     -2.4621950000     -1.1650420000
H                 -2.2489180000     -2.5344760000     -1.2422740000
H                 -3.1344350000     -1.2696800000     -2.1256170000
H                 -4.0183850000     -2.3817470000      1.3364430000
H                 -3.1240870000     -1.1124300000      2.2024130000
H                 -2.2281880000     -2.4308830000      1.4102820000





