$molecule
-1 2
C                  5.2627680000     -2.3269510000      0.3723040000
C                  6.0194460000     -1.5014480000     -0.4381220000
C                  5.3850890000     -0.6054670000     -1.3221910000
C                  3.8526840000     -2.2925160000      0.3340880000
C                  3.2193670000     -1.3916360000     -0.5547650000
C                  4.0050380000     -0.5563890000     -1.3747140000
C                  3.0967500000     -3.1967010000      1.2219220000
C                  1.6377260000     -3.1312260000      1.1528750000
C                  1.0160040000     -2.2178730000      0.2520140000
C                  1.7587860000     -1.3193050000     -0.6303850000
C                  0.7818690000     -3.9735250000      1.9791820000
C                 -0.6419140000     -3.8631410000      1.8663250000
C                 -0.4013530000     -2.1444210000      0.1755700000
C                 -1.2067200000     -2.9288910000      0.9452880000
O                  3.7336100000     -3.9696040000      1.9847670000
O                  1.1834040000     -0.5254090000     -1.4135370000
H                  5.7252660000     -3.0243580000      1.0603400000
H                  7.1038710000     -1.5427600000     -0.3941310000
H                  5.9798250000      0.0429200000     -1.9587560000
H                 -2.2883010000     -2.8562630000      0.8706530000
H                  3.4849330000      0.1204160000     -2.0426710000
H                 -0.8118440000     -1.4303010000     -0.5284990000
C                 -1.4838040000     -4.6744510000      2.6621420000
C                 -0.9566230000     -5.5819040000      3.5565840000
C                  0.4333540000     -5.7064940000      3.6832730000
C                  1.2745930000     -4.9230100000      2.9148740000
O                 -1.7484490000     -6.3919720000      4.3513030000
H                 -2.5620770000     -4.5701300000      2.5562740000
H                  0.8356130000     -6.4236760000      4.3901130000
H                  2.3452800000     -5.0179850000      3.0114960000
H                 -2.6710040000     -6.1980960000      4.1577830000
$end

$rem
   BASIS  =  6-311++G(d,p)
   GUI  =  2
   JOB_TYPE  =  SP
   METHOD  =  B3LYP
   SCF_CONVERGENCE  = 8
   SOLVENT_METHOD = sm12
$end

$smx
   solvent dimethylformamide
   charges CM5
$end





