$molecule
-2 1
C                  7.0974530000     -1.8451810000     -0.5879930000
C                  7.6251970000     -0.8160340000     -1.4556560000
C                  6.7586740000      0.2527410000     -1.8964250000
C                  5.4532470000      0.2597420000     -1.4760260000
C                  4.8759160000     -0.7150210000     -0.6288640000
C                  5.7053240000     -1.8175850000     -0.1532830000
C                  5.1501350000     -2.8261860000      0.7095420000
C                  3.7360590000     -2.6562320000      1.0540670000
C                  2.9340960000     -1.5670670000      0.5785600000
C                  3.4844460000     -0.5395580000     -0.2945990000
C                  3.1238700000     -3.6130050000      1.8994260000
C                  1.7951630000     -3.5228000000      2.2699910000
C                  1.0052880000     -2.4445690000      1.7978960000
C                  1.5770520000     -1.4959410000      0.9712410000
O                  5.7891150000     -3.8369770000      1.1839720000
O                  2.7639630000      0.4324490000     -0.7174160000
H                  4.7808360000      1.0528140000     -1.7934280000
H                  3.7566820000     -4.4249310000      2.2425890000
H                  1.0067520000     -0.6553140000      0.5883900000
C                  7.2791750000      1.3398430000     -2.8011290000
H                 -0.0420050000     -2.3659960000      2.0848390000
C                  8.9770670000     -0.8707840000     -1.8593270000
C                  8.0048770000     -2.8641470000     -0.1952640000
C                  9.3342570000     -2.8799820000     -0.6177180000
C                  9.8489010000     -1.8880470000     -1.4556280000
C                 11.2890040000     -1.9021400000     -1.9116760000
H                  1.3561480000     -4.2764770000      2.9217780000
H                  8.1156530000      1.8998740000     -2.3519290000
H                  6.4822000000      2.0552810000     -3.0249940000
H                  7.6564900000      0.9478940000     -3.7598770000
H                  9.3585870000     -0.0897830000     -2.5116630000
H                  7.6112890000     -3.6349030000      0.4536130000
H                  9.9843220000     -3.6884240000     -0.2833780000
H                 11.8383270000     -1.0083520000     -1.5797890000
H                 11.3758700000     -1.9339970000     -3.0079470000
H                 11.8162410000     -2.7767440000     -1.5152360000
$end
$rem
   MAX_SCF_CYCLES=200
   BASIS  =  6-311++G(d,p)
   GUI  =  2
   JOB_TYPE  =  SP
   METHOD  =  B3LYP
   SOLVENT_METHOD = COSMO
$end
$solvent
   dielectric 37.219
   opticaldielectric 1.43
$end





