%chk=069-rad.chk
%nproc=8
%mem=30GB
#P UB3LYP/6-311++G(d,p) nosym  opt freq SCRF=(PCM,Solvent=n,n-DiMethylFormamide)

Radical

-1 2
C                  1.1413500000      1.5576690000     -0.2807800000
C                 -0.0081400000      1.0749360000      0.4661510000
C                 -0.1816360000     -0.2354430000      0.7803110000
C                  0.7744080000     -1.2601300000      0.4068210000
C                  1.9315070000     -0.8138550000     -0.3610340000
C                  2.0645040000      0.5168410000     -0.7217070000
O                  1.3218300000      2.7777870000     -0.4979360000
O                  0.6216690000     -2.4680540000      0.7256150000
S                  3.4063640000      1.0343810000     -1.8054260000
C                  4.5009270000      2.0401140000     -0.7707030000
C                  4.3150900000      3.4186270000     -0.7098430000
C                  5.5185460000      1.4041010000     -0.0625990000
C                  6.3739280000      2.1740330000      0.7233110000
C                  5.1809510000      4.1770700000      0.0759530000
C                  6.2078810000      3.5579280000      0.7893000000
O                  2.9018960000      1.8849720000     -2.8904480000
O                  4.1677380000     -0.1785410000     -2.1618880000
H                 -0.7201080000      1.8342360000      0.7750240000
H                 -1.0442230000     -0.5732340000      1.3470950000
H                  3.4932620000      3.8652130000     -1.2526840000
H                  5.6270890000      0.3283260000     -0.1296020000
H                  7.1694420000      1.6924330000      1.2815000000
H                  5.0484010000      5.2519900000      0.1354060000
H                  6.8760660000      4.1538020000      1.4026480000
C                  2.9560730000     -1.9117680000     -0.5936240000
C                  2.7346870000     -2.8826650000     -1.7144090000
C                  1.7284040000     -2.6958040000     -2.6648920000
C                  3.5671750000     -4.0028160000     -1.8094980000
C                  1.5566550000     -3.6141490000     -3.6978670000
C                  2.3882530000     -4.7293930000     -3.7862350000
C                  3.3951160000     -4.9223680000     -2.8378270000
O                  3.8778680000     -2.0458730000      0.1877190000
H                  1.0841860000     -1.8274920000     -2.5971060000
H                  4.3427920000     -4.1305330000     -1.0640500000
H                  0.7754440000     -3.4582570000     -4.4340920000
H                  2.2540660000     -5.4454890000     -4.5906930000
H                  4.0438270000     -5.7898260000     -2.9040890000


