%chk=230-an.chk
%nproc=8
%mem=30GB
#P UB3LYP/6-311++G(d,p) nosym opt freq

Reduced

-2 1
C          5.90086       -5.22404        1.06717
C          6.79700       -5.08811        0.00581
C          6.58833       -4.10425       -0.95848
C          4.79132       -4.37163        1.16700
C          4.58425       -3.39246        0.20679
C          5.48354       -3.25716       -0.86083
C          3.85157       -4.52365        2.28730
C          2.71822       -3.55891        2.38789
C          2.48294       -2.59659        1.47523
C          3.42214       -2.49876        0.29494
O          4.02769       -5.42749        3.09824
O          3.20438       -1.67540       -0.59342
H          6.07164       -5.99673        1.81572
H          7.65692       -5.75054       -0.06779
H          5.32705       -2.49172       -1.61965
Cl         1.73932       -3.76538        3.80818
H          7.28488       -3.99637       -1.78722
N          1.47790       -1.62101        1.42951
C          0.14313       -1.69511        1.99776
C         -0.73074       -0.58403        1.41461
C         -2.13214       -0.60943        2.00272
H          1.52515       -1.11875        0.53364
H          0.19389       -1.56848        3.08379
H         -0.30753       -2.66915        1.77543
H         -0.79404       -0.69125        0.32490
H         -0.27263        0.39304        1.61053
H         -2.62832       -1.56236        1.79290
H         -2.73922        0.19218        1.57057
H         -2.10484       -0.46744        3.08781








