$molecule
-2 1
C                  2.8974570000      0.2627530000     -0.0818090000
C                  1.3957590000      0.1340250000     -0.0438020000
C                  0.7859610000     -0.9687950000      0.5757820000
C                 -0.6242900000     -1.1765340000      0.6616190000
O                 -1.1771340000     -2.2108890000      1.2431810000
C                 -1.3957580000     -0.1340400000      0.0438090000
C                 -0.7859530000      0.9687940000     -0.5757820000
C                  0.6242840000      1.1765350000     -0.6616200000
O                  1.1771470000      2.2108790000     -1.2431730000
C                 -2.8974550000     -0.2627480000      0.0818050000
H                  3.3800720000     -0.5880400000      0.4188810000
H                  3.2374120000      1.1933330000      0.4001050000
H                  3.2737980000      0.3220300000     -1.1155600000
H                  1.4164750000     -1.7365670000      1.0322850000
H                 -1.4164850000      1.7365500000     -1.0322880000
H                 -3.2738230000     -0.3219680000      1.1155540000
H                 -3.3800470000      0.5880310000     -0.4189290000
H                 -3.2374230000     -1.1933490000     -0.4000600000
$end
$rem
   MAX_SCF_CYCLES=200
   BASIS  =  6-311++G(d,p)
   GUI  =  2
   JOB_TYPE  =  SP
   METHOD  =  B3LYP
   SOLVENT_METHOD = PCM
$end
$pcm
   theory = CPCM
$end
$solvent
   dielectric 37.219
   opticaldielectric 1.43
$end





