$molecule
-1 2
C                  2.3895730000      3.4480130000      2.8292620000
C                  3.4647290000      3.4409140000      1.8852710000
C                  3.3869650000      2.7589690000      0.6861290000
C                  2.2027800000      1.9638330000      0.3327400000
C                  1.1275990000      1.9709780000      1.2767040000
C                  1.2053640000      2.6529260000      2.4758430000
O                  2.4024800000      4.1017370000      3.9203050000
O                  2.1899120000      1.3100080000     -0.7582440000
N                  0.2169530000      2.6511080000      3.4543140000
C                 -1.1740750000      2.4276050000      3.1312820000
C                 -2.0509290000      2.5636750000      4.3744350000
N                  4.3753510000      2.7608680000     -0.2923880000
C                  5.7664090000      2.9841730000      0.0306830000
C                  6.6432110000      2.8484970000     -1.2125500000
H                  4.3393900000      4.0268870000      2.1483790000
H                  0.2529200000      1.3850400000      1.0135780000
H                  0.4208300000      3.3802440000      4.1344160000
H                 -1.2897560000      1.4186190000      2.7183220000
H                 -1.5287330000      3.1209190000      2.3468830000
H                 -1.7459960000      1.8478370000      5.1431550000
H                 -3.1023250000      2.3841670000      4.1295310000
H                 -1.9730250000      3.5692960000      4.8011060000
H                  4.1714380000      2.0317430000     -0.9724980000
H                  6.1210620000      2.2905630000      0.8148240000
H                  5.8821540000      3.9930050000      0.4439910000
H                  6.5651990000      1.8430450000     -1.6396030000
H                  7.6946330000      3.0278090000     -0.9676100000
H                  6.3383180000      3.5646530000     -1.9809880000
$end

$rem
   BASIS  =  6-311++G(d,p)
   GUI  =  2
   JOB_TYPE  =  SP
   METHOD  =  B3LYP
   SCF_CONVERGENCE  = 8
   SOLVENT_METHOD = sm12
$end

$smx
   solvent dimethylformamide
   charges CM5
$end





