$molecule
0 1
C                  0.3002570000     -0.5360530000     -0.1073290000
C                 -0.2607020000     -1.6897750000     -0.5482890000
C                 -1.7117020000     -1.8690220000     -0.6052010000
O                 -2.2045600000     -2.9138320000     -1.0092670000
C                 -2.5873190000     -0.7371570000     -0.1545200000
C                 -3.9741050000     -0.8727380000     -0.1931380000
C                 -4.7891480000      0.1762580000      0.2252870000
C                 -4.2242770000      1.3680130000      0.6853230000
C                 -2.8418230000      1.5122110000      0.7273500000
C                 -2.0198920000      0.4613790000      0.3078180000
C                 -0.5506630000      0.6184450000      0.3545670000
O                 -0.0060920000      1.6400430000      0.7508020000
H                  0.3486960000     -2.5198110000     -0.8739460000
H                 -4.3920140000     -1.8049340000     -0.5528150000
H                 -5.8672870000      0.0664430000      0.1936890000
H                 -4.8628040000      2.1814240000      1.0100820000
H                 -2.3824230000      2.4271150000      1.0805760000
N                  1.6396430000     -0.2347200000     -0.0114200000
C                  2.7252200000     -1.0578870000     -0.3318110000
N                  3.9377610000     -0.4506970000     -0.1326850000
C                  5.1732680000     -1.1216480000     -0.5117030000
O                  2.6023740000     -2.2029590000     -0.7256260000
H                  1.8012840000      0.6916090000      0.3714350000
H                  3.9695710000      0.5452790000      0.0181570000
H                  5.1001310000     -2.1754250000     -0.2473170000
H                  6.0022190000     -0.6733770000      0.0371840000
H                  5.3715320000     -1.0493310000     -1.5862880000
$end
$rem
   MAX_SCF_CYCLES=200
   BASIS  =  6-311++G(d,p)
   GUI  =  2
   JOB_TYPE  =  SP
   METHOD  =  B3LYP
   SOLVENT_METHOD = COSMO
$end
$solvent
   dielectric 37.219
   opticaldielectric 1.43
$end





