%chk=149-an.chk
%nproc=8
%mem=30GB
#P UB3LYP/6-311++G(d,p) nosym opt freq

Reduced

-2 1
C                 -3.0645260000      3.5809420000      1.0168890000
C                 -3.9834200000      2.9777820000      1.8495700000
C                 -3.8334360000      1.6045930000      2.1880290000
C                 -1.9559750000      2.8770900000      0.4776020000
C                 -1.8037660000      1.4852350000      0.8245220000
C                 -2.7669070000      0.8927800000      1.6804050000
C                 -1.0397360000      3.5876410000     -0.3954340000
C                  0.0701740000      2.8006890000     -0.8805660000
C                  0.2126200000      1.3799130000     -0.5426930000
C                 -0.7122850000      0.6784960000      0.3206000000
C                  1.0918740000      3.3249830000     -1.7327110000
C                  2.1217720000      2.5754660000     -2.2508560000
C                  2.2217980000      1.1939090000     -1.9305890000
C                  1.2873380000      0.6357100000     -1.0899980000
O                 -1.2408730000      4.8241690000     -0.6950420000
O                 -0.5832440000     -0.5637830000      0.6145020000
H                 -2.6206760000     -0.1567640000      1.9159540000
H                  1.3272930000     -0.4115910000     -0.8088000000
H                 -3.1509470000      4.6263430000      0.7393950000
O                  1.0734460000      4.6720580000     -2.1521610000
H                  3.0335030000      0.5986400000     -2.3416580000
H                 -4.5556810000      1.1214410000      2.8436610000
C                  1.5454970000      5.6362210000     -1.3301070000
C                  1.3618610000      6.9735620000     -1.7494090000
C                  2.2525610000      5.3889010000     -0.1502630000
C                  2.7940720000      6.4433620000      0.5857450000
C                  1.9243830000      8.0124450000     -1.0149670000
C                  2.6488290000      7.7589690000      0.1530880000
O                  0.6955880000      7.2697770000     -2.9148230000
C                 -0.7051390000      6.9060870000     -2.9326310000
H                 -4.8196810000      3.5493670000      2.2480950000
H                  2.8437730000      3.0647360000     -2.8968300000
H                  2.3676040000      4.3641290000      0.1782610000
H                  3.3345270000      6.2267340000      1.5025350000
H                  1.7742830000      9.0254450000     -1.3753290000
H                  3.0777130000      8.5810840000      0.7188670000
H                 -0.9483460000      6.6564280000     -3.9685740000
H                 -1.2965960000      7.7779540000     -2.6209580000
H                 -0.9192860000      6.0596260000     -2.2696710000


