$molecule
-2 1
Br                -2.7276340000     -1.8398210000     -0.0960110000
C                 -1.0827860000     -0.7309210000     -0.0381160000
C                 -1.2659540000      0.6496360000     -0.0287100000
C                 -0.1599400000      1.5614770000      0.0120520000
O                 -0.2918800000      2.8506330000      0.0218180000
C                  1.1081060000      0.8921800000      0.0405470000
C                  1.2086620000     -0.4967080000      0.0287250000
Br                 3.0437340000     -1.2503800000      0.0722890000
C                  0.1502610000     -1.4678530000     -0.0111960000
O                  0.2806080000     -2.7389560000     -0.0210580000
H                 -2.2667080000      1.0672290000     -0.0524500000
H                  2.0035300000      1.5034840000      0.0721100000
$end

$rem
   BASIS  =  6-311++G(d,p)
   GUI  =  2
   JOB_TYPE  =  SP
   METHOD  =  B3LYP
   SCF_CONVERGENCE  = 8
   SOLVENT_METHOD = sm12
$end

$smx
   solvent dimethylformamide
   charges CM5
$end





