$molecule
-2 1
O                  1.5659850000     -3.1279110000      0.0839440000
C                  1.3024980000     -1.8720570000      0.0447450000
C                  2.3612350000     -0.8756700000     -0.0057190000
C                  3.7133440000     -1.2937170000     -0.0120370000
C                  4.7579490000     -0.3906360000     -0.0591310000
C                  4.4755780000      0.9986620000     -0.1026820000
C                  3.1629850000      1.4312310000     -0.0974410000
C                  2.0718820000      0.5293400000     -0.0496130000
C                  0.7128130000      1.0725000000     -0.0474730000
O                  0.5495940000      2.3495700000     -0.0889930000
C                 -0.3454670000      0.0986870000      0.0020600000
C                 -1.7528910000      0.4863610000      0.0100760000
C                 -2.1884240000      1.8410340000     -0.0298920000
C                 -3.5386410000      2.1863160000     -0.0213000000
C                 -4.5330870000      1.2026810000      0.0275320000
C                 -4.1439960000     -0.1343950000      0.0675710000
C                 -2.7873510000     -0.5178290000      0.0602430000
C                 -2.4148960000     -1.9040760000      0.1022480000
C                 -1.0965840000     -2.2669850000      0.0947240000
C                 -0.0325300000     -1.3315820000      0.0464250000
H                  3.8866170000     -2.3649320000      0.0221820000
H                  5.7890870000     -0.7405200000     -0.0628900000
H                  5.2900850000      1.7204480000     -0.1400760000
H                  2.9111470000      2.4862950000     -0.1299800000
H                 -1.4112680000      2.5928910000     -0.0675290000
H                 -3.8172400000      3.2382920000     -0.0532450000
H                 -5.5873250000      1.4725910000      0.0341880000
H                 -4.8973960000     -0.9201310000      0.1059140000
H                 -3.2028540000     -2.6549630000      0.1399580000
H                 -0.8008470000     -3.3114950000      0.1261880000
$end
$rem
   MAX_SCF_CYCLES=200
   BASIS  =  6-311++G(d,p)
   GUI  =  2
   JOB_TYPE  =  SP
   METHOD  =  B3LYP
   SOLVENT_METHOD = PCM
$end
$pcm
   theory = CPCM
$end
$solvent
   dielectric 37.219
   opticaldielectric 1.43
$end





