$molecule
-2 1
C                  2.8116100000     -0.4061810000      0.4152590000
O                  1.6484480000      0.2966420000      0.8181500000
C                  0.4544430000     -0.3204880000      0.4312410000
C                 -0.3913240000      0.3887380000     -0.4378800000
O                  0.0928130000      1.5841080000     -0.9790850000
C                 -0.6638360000      2.7250300000     -0.6118210000
C                 -1.6894900000     -0.0885490000     -0.8415670000
O                 -2.4713220000      0.5656480000     -1.6474560000
C                 -2.0165730000     -1.3598080000     -0.2752020000
C                 -1.1655390000     -2.0762110000      0.5667400000
C                  0.1185620000     -1.6074540000      0.9852160000
O                  0.8988960000     -2.2628700000      1.7916700000
H                  2.9040750000     -0.4144550000     -0.6840020000
H                  3.6720840000      0.1347610000      0.8317770000
H                  2.7887580000     -1.4310080000      0.7999930000
H                 -0.2312970000      3.5811470000     -1.1470910000
H                 -0.5852960000      2.9158040000      0.4718760000
H                 -1.7127180000      2.5935170000     -0.8971020000
H                 -2.9847840000     -1.7759950000     -0.5554520000
H                 -1.4775100000     -3.0423760000      0.9647360000
$end
$rem
   MAX_SCF_CYCLES=200
   BASIS  =  6-311++G(d,p)
   GUI  =  2
   JOB_TYPE  =  SP
   METHOD  =  B3LYP
   SOLVENT_METHOD = PCM
$end
$pcm
   theory = CPCM
$end
$solvent
   dielectric 37.219
   opticaldielectric 1.43
$end





