%chk=090-an.chk
%nproc=8
%mem=30GB
#P UB3LYP/6-311++G(d,p) nosym opt freq SCRF=(PCM,Solvent=n,n-DiMethylFormamide)

Reduced

-2 1
C                 -2.4145290000      0.3889170000      1.2821780000
C                 -3.5885840000      1.1340540000      1.3829990000
C                 -3.7031970000      2.3259190000      2.3068810000
C                 -4.7807890000      0.7936640000      0.6338040000
O                 -5.8827360000      1.4433510000      0.7417600000
C                 -4.6577250000     -0.3485230000     -0.2439430000
C                 -3.4823730000     -1.0756130000     -0.3602400000
O                 -3.4361320000     -2.1106200000     -1.2872400000
C                 -3.1858690000     -3.3918560000     -0.7285270000
C                 -2.2946570000     -0.7465390000      0.3940830000
O                 -1.2049930000     -1.4136920000      0.2733150000
O                 -5.7737690000     -0.7843650000     -0.9499200000
C                 -6.2655990000      0.1449080000     -1.9041660000
H                 -4.6571550000      2.8213210000      2.1154740000
H                 -2.8895020000      3.0477280000      2.1634490000
H                 -3.6852060000      2.0343680000      3.3679740000
H                 -4.0147870000     -3.6975930000     -0.0717130000
H                 -3.1249460000     -4.0922350000     -1.5685370000
H                 -2.2448970000     -3.3913590000     -0.1714330000
H                 -6.5144870000      1.0947590000     -1.4226420000
H                 -7.1657830000     -0.3018540000     -2.3402970000
H                 -5.5274560000      0.3073880000     -2.7043400000
C                 -1.1759750000      0.7277940000      2.0823880000
C                 -0.1543180000      1.5971000000      1.3208670000
C                  1.1101810000      1.8987200000      2.1357110000
C                  2.1390020000      2.7721700000      1.4057660000
C                  3.3948050000      3.0771750000      2.2336210000
C                  4.4249460000      3.9588440000      1.5159300000
C                  5.6716670000      4.2659390000      2.3564690000
C                  6.7022270000      5.1523180000      1.6458020000
C                  7.9437900000      5.4595880000      2.4938150000
C                  8.9719500000      6.3462840000      1.7852330000
H                 -0.6773040000     -0.2126670000      2.3434590000
H                 -1.4467350000      1.2346040000      3.0167090000
H                 -0.6293860000      2.5406250000      1.0216490000
H                  0.1144280000      1.0694720000      0.4000460000
H                  1.5833990000      0.9498150000      2.4224200000
H                  0.8265290000      2.3925800000      3.0766130000
H                  1.6645960000      3.7178840000      1.1102930000
H                  2.4326740000      2.2765960000      0.4711540000
H                  3.8715790000      2.1315650000      2.5249700000
H                  3.0966770000      3.5654270000      3.1715500000
H                  3.9485430000      4.9031110000      1.2200630000
H                  4.7308030000      3.4700880000      0.5813830000
H                  6.1497450000      3.3217970000      2.6500680000
H                  5.3638510000      4.7516400000      3.2922510000
H                  6.2268670000      6.0969100000      1.3504330000
H                  7.0160680000      4.6679790000      0.7118340000
H                  8.4204820000      4.5160900000      2.7893940000
H                  7.6307760000      5.9429240000      3.4282990000
H                  9.3410480000      5.8769930000      0.8659850000
H                  9.8426640000      6.5445230000      2.4194120000
H                  8.5434430000      7.3173770000      1.5115890000


