$molecule
-1 2
C                  5.7353010000     -5.3557230000      1.3223510000
C                  6.6989460000     -5.1908220000      0.3394520000
C                  6.6085500000     -4.1739070000     -0.6159450000
C                  4.6260050000     -4.4566880000      1.3489400000
C                  4.5329070000     -3.4079090000      0.3638860000
C                  5.5506730000     -3.2780230000     -0.6295000000
C                  3.5756920000     -4.6030790000      2.3858740000
C                  2.4943150000     -3.6607920000      2.3444990000
C                  2.4060200000     -2.6647680000      1.4092460000
C                  3.3863070000     -2.4672260000      0.3801670000
O                  3.6076030000     -5.5032700000      3.2721220000
O                  3.2554620000     -1.5308320000     -0.4581970000
C                  5.9326770000     -6.4895860000      2.3059380000
H                  7.5462570000     -5.8710470000      0.3125350000
H                  1.5731080000     -1.9672090000      1.4062740000
C                  5.5527040000     -2.2164700000     -1.7089060000
H                  7.3871350000     -4.0816560000     -1.3687090000
H                  6.8594160000     -7.0218830000      2.0621360000
H                  5.0989190000     -7.1934850000      2.2880470000
H                  5.9847250000     -6.1308240000      3.3352590000
H                  1.7340510000     -3.7826870000      3.1109740000
H                  5.5478000000     -1.2092060000     -1.2889770000
H                  4.6609030000     -2.2716540000     -2.3354620000
H                  6.4427740000     -2.3413230000     -2.3364630000
$end

$rem
   BASIS  =  6-311++G(d,p)
   GUI  =  2
   JOB_TYPE  =  SP
   METHOD  =  B3LYP
   SCF_CONVERGENCE  = 8
   SOLVENT_METHOD = sm12
$end

$smx
   solvent dimethylformamide
   charges CM5
$end





