$molecule
0 1
C                  0.3048080000      3.8785510000      0.4773610000
C                 -0.8695240000      3.4721340000      1.1023070000
C                 -1.2671200000      2.1341250000      1.0454840000
C                  1.0913670000      2.9447880000     -0.2025500000
C                  0.6930740000      1.6036330000     -0.2590230000
C                 -0.4899380000      1.2021070000      0.3650060000
C                  2.3361680000      3.3965960000     -0.8869230000
C                  3.2144880000      2.3483800000     -1.5005940000
C                  2.8178160000      1.0438030000     -1.5786020000
C                  1.5275200000      0.6018840000     -0.9805460000
O                  2.6131240000      4.5819600000     -0.9520070000
O                  1.1713690000     -0.5657810000     -1.0566910000
H                  0.6271060000      4.9119890000      0.5022250000
H                 -1.4779900000      4.1965060000      1.6316680000
H                 -2.1843940000      1.8207310000      1.5309410000
H                 -0.7804720000      0.1606610000      0.3049470000
S                  4.7207820000      2.8155200000     -2.3070460000
C                  3.6341020000     -0.0177000000     -2.2557390000
H                  3.5868820000      0.0885390000     -3.3455520000
H                  3.2551870000     -1.0049700000     -1.9984390000
H                  4.6871290000      0.0683320000     -1.9749770000
C                  5.4100730000      4.2794360000     -1.4073920000
C                  6.8823300000      4.4080510000     -1.7899370000
H                  5.2929670000      4.1085550000     -0.3376910000
H                  4.8396470000      5.1614310000     -1.6821920000
H                  7.4595530000      3.5320720000     -1.4853180000
H                  7.3081010000      5.2860000000     -1.2960270000
H                  7.0074640000      4.5422360000     -2.8677050000
$end
$rem
   MAX_SCF_CYCLES=200
   BASIS  =  6-311++G(d,p)
   GUI  =  2
   JOB_TYPE  =  SP
   METHOD  =  B3LYP
   SOLVENT_METHOD = COSMO
$end
$solvent
   dielectric 37.219
   opticaldielectric 1.43
$end





