$molecule
0 1
C                  4.8787200000     -2.8508180000     -0.3596580000
C                  5.6055120000     -1.9535660000     -1.1301920000
C                  5.0179820000     -0.7556970000     -1.5505090000
C                  3.5570810000     -2.5573140000     -0.0027080000
C                  2.9655460000     -1.3554270000     -0.4235680000
C                  3.7071900000     -0.4581660000     -1.1999300000
C                  2.7915230000     -3.5177680000      0.8170790000
C                  1.4113710000     -3.1863680000      1.1762920000
C                  0.7998780000     -1.9631100000      0.7518940000
C                  1.5618680000     -1.0098730000     -0.0625140000
C                  0.6876230000     -4.1030390000      1.9558830000
C                 -0.6436680000     -3.8078980000      2.3157550000
C                 -0.5409700000     -1.6658160000      1.1145280000
C                 -1.2256790000     -2.6386660000      1.9092070000
O                  3.3176330000     -4.5821070000      1.1887400000
O                  1.0860080000      0.0621390000     -0.4583890000
O                  1.1881130000     -5.2652640000      2.3904950000
Br                -3.0382530000     -2.3001540000      2.4335840000
N                 -1.1606780000     -0.5249640000      0.7384050000
H                  5.3110430000     -3.7843010000     -0.0222350000
H                  6.6286880000     -2.1818080000     -1.4059960000
H                  5.5871320000     -0.0561470000     -2.1522380000
H                  3.2348950000      0.4633910000     -1.5152350000
H                 -1.1845790000     -4.5267860000      2.9166750000
H                  2.1202180000     -5.3142020000      2.0529750000
H                 -0.6335230000      0.1333970000      0.1758970000
H                 -2.1120040000     -0.3536390000      1.0171830000
$end
$rem
   MAX_SCF_CYCLES=200
   BASIS  =  6-311++G(d,p)
   GUI  =  2
   JOB_TYPE  =  SP
   METHOD  =  B3LYP
   SOLVENT_METHOD = COSMO
$end
$solvent
   dielectric 37.219
   opticaldielectric 1.43
$end





