%chk=193-an-pro.chk
%nproc=8
%mem=30GB
#P UB3LYP/6-311++G(d,p) nosym opt freq

Reduced

-1 1
 C                  5.36282033    5.23027712   -2.05819417
 O                  4.65635633    4.14592412   -1.46553217
 C                  5.30423133    2.99386412   -1.20221017
 C                  6.66442633    2.81999112   -1.48640317
 C                  7.29910533    1.61577412   -1.20126717
 C                  6.59647133    0.56497412   -0.63129317
 C                  5.24091333    0.71655112   -0.34188717
 C                  4.55020233   -0.47156688    0.27417583
 O                  5.19894833   -1.47826888    0.50393483
 C                  3.10277033   -0.35337988    0.56838583
 C                  2.38003733   -1.41899988    1.12119283
 O                  3.01920633   -2.57853688    1.40938583
 C                  0.98976433   -1.29523788    1.38758683
 C                  0.26367933   -2.47897588    1.99034583
 C                 -1.27328767   -2.36905688    1.99492983
 O                 -1.80596767   -2.74099588    0.72748883
 C                 -1.68187167   -0.93586788    2.38649783
 C                 -1.13165067    0.08622412    1.39335083
 O                 -1.82785567   -0.04194988    0.12128583
 C                 -2.74903967    0.97107512   -0.18430017
 C                 -3.18745867    0.80862312   -1.63884517
 C                 -4.63880567    1.28807312   -1.85738117
 N                 -4.83268567    1.63435012   -3.26270417
 C                 -4.97109767    2.40382512   -0.85164917
 O                 -4.06801367    3.48209212   -1.12512017
 C                 -4.86967467    1.84700612    0.58821583
 C                 -4.68272967    2.91893912    1.65988983
 O                 -3.86251667    0.82523012    0.70688483
 C                  0.34494233   -0.09758188    1.12367583
 C                  1.05865133    0.99024312    0.57301083
 O                  0.36784033    2.11866912    0.34774683
 C                  2.43302333    0.87147612    0.28891083
 C                  3.13114233    2.03629712   -0.28939917
 O                  2.50125633    3.08844812   -0.49293517
 C                  4.56720333    1.92376912   -0.61628417
 C                 -1.85532667   -3.33204088    3.05957583
 C                 -3.12525167   -4.06701988    2.71319383
 O                 -1.30773767   -3.44788688    4.13558283
 H                  4.62751633    6.02491512   -2.16848017
 H                  5.75750933    4.96056212   -3.04313717
 H                  6.17844933    5.57631012   -1.41502017
 H                  7.23246133    3.62458312   -1.93108517
 H                  8.35326433    1.50483612   -1.42988117
 H                  7.06979233   -0.37973988   -0.40119317
 H                  2.39480933   -3.20881088    1.78458383
 H                  0.59491933   -2.62736788    3.02549483
 H                  0.50315333   -3.39181288    1.43063983
 H                 -1.94732967   -1.93844288    0.20096583
 H                 -1.28533167   -0.72115288    3.38341083
 H                 -2.76843167   -0.83810388    2.42028683
 H                 -1.30263167    1.09474312    1.77392683
 H                 -2.27960167    1.94567612   -0.01641417
 H                 -2.50956967    1.37899212   -2.27744217
 H                 -3.10432867   -0.24060088   -1.92813917
 H                 -5.31480767    0.45765112   -1.62999617
 H                 -4.32271767    2.48486012   -3.48304517
 H                 -5.81233467    1.80288712   -3.46884217
 H                 -6.00343267    2.74367912   -1.01031517
 H                 -4.34896067    4.26842712   -0.64836017
 H                 -5.81040267    1.31903912    0.77953083
 H                 -3.73027667    3.44075612    1.54153083
 H                 -4.69784567    2.45880212    2.64958283
 H                 -5.49267467    3.65605512    1.62047083
 H                  1.02769033    2.76766012   -0.02933717
 H                 -2.93472067   -4.75842088    1.88810483
 H                 -3.47937867   -4.60735988    3.59000383
 H                 -3.88706867   -3.37213188    2.35080983
 H                 -4.92755819    2.63816286   -3.11326625

























