%chk=118.chk
%nproc=8
%mem=30GB
#P UB3LYP/6-311++G(d,p) nosym opt freq SCRF=(PCM,Solvent=n,n-DiMethylFormamide)

Oxidized

0 1
Cl                 5.1912270000     -1.4819030000     -0.0055320000
C                  3.6604360000     -0.6412590000     -0.1514640000
C                  3.6574480000      0.7164180000     -0.4795430000
C                  2.4451320000      1.3816700000     -0.5949870000
C                  1.2389270000      0.7052110000     -0.3863190000
C                 -0.0451430000      1.4510250000     -0.5185150000
O                 -0.0606470000      2.6371060000     -0.8046400000
C                 -1.3078600000      0.6904430000     -0.2874110000
C                 -2.5313630000      1.3572180000     -0.4028380000
C                 -3.7226070000      0.6727020000     -0.1929590000
C                 -3.7029140000     -0.6859510000      0.1346570000
C                 -2.4918480000     -1.3574390000      0.2517490000
C                 -1.2881070000     -0.6771160000      0.0423700000
C                 -0.0042730000     -1.4236020000      0.1748240000
O                  0.0188150000     -2.6086060000      0.4604730000
C                  1.2606390000     -0.6604290000     -0.0570350000
C                  2.4779570000     -1.3353400000      0.0605420000
H                  4.5934410000      1.2359670000     -0.6401710000
H                  2.4124990000      2.4340840000     -0.8482220000
H                 -2.5236770000      2.4097510000     -0.6574960000
H                 -4.6685140000      1.1943980000     -0.2837230000
H                 -4.6333820000     -1.2176180000      0.2978870000
H                 -2.4533930000     -2.4097060000      0.5046940000
H                  2.4772080000     -2.3870250000      0.3147950000


