$molecule
0 1
C                  5.0426030000     -2.2342860000      0.7457340000
C                  5.8791570000     -1.4129290000     -0.0005450000
C                  5.3435160000     -0.5683430000     -0.9770330000
C                  3.6620320000     -2.2201220000      0.5233190000
C                  3.1231020000     -1.3703100000     -0.4593650000
C                  3.9726640000     -0.5472280000     -1.2049330000
C                  2.7880470000     -3.1135620000      1.3392230000
C                  1.3204010000     -3.0718950000      1.0700910000
C                  0.7840150000     -2.2213360000      0.0875640000
C                  1.6545820000     -1.3267870000     -0.7256560000
C                  0.4728930000     -3.8993620000      1.8103780000
C                 -0.5963000000     -2.2187700000     -0.1333340000
C                 -1.4263270000     -3.0461760000      0.6109090000
O                  3.2558260000     -3.8486460000      2.1938110000
O                  1.1874010000     -0.5865880000     -1.5766000000
H                  5.4358620000     -2.8964660000      1.5071060000
H                  6.9487650000     -1.4280070000      0.1754720000
H                  5.9978440000      0.0715450000     -1.5581420000
H                 -2.4953530000     -3.0395940000      0.4236210000
H                  3.5360100000      0.0991540000     -1.9561700000
H                  0.9181430000     -4.5495160000      2.5550410000
H                 -0.9965610000     -1.5628400000     -0.8966280000
C                 -0.9060120000     -3.8995520000      1.5962530000
C                 -1.8183640000     -4.7707680000      2.4263830000
C                 -2.2671130000     -4.0747880000      3.7128790000
O                 -3.1318910000     -4.9736560000      4.4057960000
H                 -1.3120840000     -5.7009240000      2.6979210000
H                 -2.7099610000     -5.0412690000      1.8539310000
H                 -2.7892110000     -3.1400220000      3.4684490000
H                 -1.3907530000     -3.8235360000      4.3244740000
H                 -3.4051620000     -4.5689810000      5.2344750000
$end
$rem
   MAX_SCF_CYCLES=200
   BASIS  =  6-311++G(d,p)
   GUI  =  2
   JOB_TYPE  =  SP
   METHOD  =  B3LYP
   SOLVENT_METHOD = PCM
$end
$pcm
   theory = CPCM
$end
$solvent
   dielectric 37.219
   opticaldielectric 1.43
$end






