$molecule
-1 2
C                 -0.2467320000      0.9367880000      0.3703690000
C                 -1.3626200000      0.1520990000     -0.1244070000
C                 -1.2368980000     -1.1573340000     -0.4659770000
C                  0.0203430000     -1.8678040000     -0.3617360000
C                  1.1682450000     -1.1095420000      0.1292500000
C                  1.0377610000      0.2364770000      0.4931980000
O                 -0.4034760000      2.1575270000      0.6391500000
O                  0.1024410000     -3.0890150000     -0.6825130000
C                  2.2115030000      0.9952650000      1.0061180000
C                  2.0030620000      2.1044810000      2.0281970000
O                  3.3617040000      0.7402100000      0.6571010000
H                 -2.3084000000      0.6787870000     -0.2143820000
H                 -2.0818030000     -1.7312800000     -0.8368070000
H                  1.1615670000      1.9067210000      2.6934990000
H                  1.7677940000      3.0354360000      1.5082330000
H                  2.9338960000      2.2185120000      2.5894810000
C                  2.4536110000     -1.8892290000      0.2424290000
H                  2.2181140000     -2.9540750000      0.2356500000
H                  3.0188390000     -1.6250510000      1.1376080000
H                  3.1144390000     -1.6807350000     -0.6053780000
$end
$rem
   MAX_SCF_CYCLES=200
   BASIS  =  6-311++G(d,p)
   GUI  =  2
   JOB_TYPE  =  SP
   METHOD  =  B3LYP
   SOLVENT_METHOD = COSMO
$end
$solvent
   dielectric 37.219
   opticaldielectric 1.43
$end





