$molecule
0 1
C                 -2.2584920000     -2.2169530000      5.0088080000
C                 -1.2824720000     -3.2329270000      4.5138500000
C                 -1.2504470000     -3.4481980000      3.1856690000
C                 -2.1163820000     -2.7482350000      2.1912630000
C                 -3.0577130000     -1.7655130000      2.6734900000
C                 -3.1386560000     -1.4848470000      4.0065260000
O                 -2.3895300000     -1.9395190000      6.1911290000
O                 -1.9961870000     -3.0368420000      1.0011370000
N                 -3.9450620000     -0.5757030000      4.5923210000
C                 -4.9253390000      0.2660050000      3.9105010000
C                 -6.2227860000     -0.5011670000      3.6127780000
C                 -5.1796560000      1.5162840000      4.7542810000
H                 -3.6779860000     -1.2775680000      1.9331240000
H                 -3.8754190000     -0.5366950000      5.6023990000
H                 -4.4754630000      0.5768220000      2.9607990000
H                 -6.9093160000      0.1214230000      3.0324380000
H                 -6.7212990000     -0.7855080000      4.5439610000
H                 -6.0234690000     -1.4102200000      3.0418530000
H                 -5.8954590000      2.1722170000      4.2543720000
H                 -4.2560590000      2.0763250000      4.9176490000
H                 -5.5995320000      1.2486770000      5.7297150000
C                 -0.3851010000     -3.9662480000      5.5202410000
C                 -1.2572970000     -4.7611530000      6.5232070000
C                  0.5483790000     -4.9627180000      4.8081680000
C                  0.4964430000     -2.9457350000      6.2818120000
H                 -0.5761300000     -4.1656670000      2.7359360000
H                 -1.9000490000     -4.1046930000      7.1080440000
H                 -0.6103210000     -5.3109040000      7.2131780000
H                 -1.8839300000     -5.4900040000      6.0006650000
H                  1.1717470000     -5.4636710000      5.5529200000
H                  1.2165990000     -4.4649290000      4.1000720000
H                 -0.0087770000     -5.7354200000      4.2713340000
H                 -0.1044660000     -2.2466330000      6.8617510000
H                  1.1217300000     -2.3772580000      5.5869760000
H                  1.1603750000     -3.4784550000      6.9690150000
$end
$rem
   MAX_SCF_CYCLES=200
   BASIS  =  6-311++G(d,p)
   GUI  =  2
   JOB_TYPE  =  SP
   METHOD  =  B3LYP
   SOLVENT_METHOD = COSMO
$end
$solvent
   dielectric 37.219
   opticaldielectric 1.43
$end





