%chk=020-an.chk
%nproc=8
%mem=30GB
#P UB3LYP/6-311++G(d,p) nosym opt freq

Reduced

-2 1
C         -1.68654        0.90288        1.56647
C         -2.90818        1.25390        0.76561
C         -2.84641        1.06882       -0.58128
C         -1.62360        0.53083       -1.23241
C         -0.40187        0.18081       -0.43162
C         -0.46331        0.36630        0.91510
O         -1.63545        0.40095       -2.44479
O         -1.67460        1.03199        2.77894
Br         0.99377       -0.09988        2.10396
Br        -4.30147        1.53838       -1.77123
C          0.88955       -0.38698       -1.06568
C          2.01294        0.66642       -1.04606
C          0.75375       -0.91554       -2.50392
C         -4.19894        1.82377        1.39969
C         -4.06386        2.34485        2.84079
C         -5.32704        0.77531        1.37415
H          1.19071       -1.27513       -0.46806
H          2.22590        1.04283       -0.02886
H          1.72920        1.53697       -1.67597
H          2.95506        0.23232       -1.44421
H         -0.04295       -1.68807       -2.55648
H          1.70603       -1.39337       -2.82033
H          0.54688       -0.09925       -3.22697
H         -4.49546        2.71551        0.80508
H         -5.01495        2.82437        3.15816
H         -3.26466        3.11437        2.89882
H         -3.86087        1.52390        3.55979
H         -6.26771        1.21223        1.77271
H         -5.04828       -0.09909        2.00085
H         -5.54106        0.40379        0.35555






