%chk=303-rad.chk
%nproc=8
%mem=30GB
#P UB3LYP/6-311++G(d,p) nosym opt freq Int=Acc2E=11 SCRF=(PCM,Solvent=n,n-DiMethylFormamide)

Radical

-1 2
 C                 -1.44570300    7.09809700    4.27167400
 C                 -2.42498200    6.83205500    5.21149400
 C                 -2.76081300    5.49992500    5.51926400
 C                 -0.77331500    6.04696800    3.61149900
 C                 -1.11030600    4.70024300    3.91992500
 C                 -2.11001200    4.45691900    4.88029200
 C                  0.25132600    6.32025100    2.62683400
 C                  0.88253800    5.18282700    2.00292500
 C                  0.57654700    3.86136100    2.27507100
 C                 -0.43496300    3.56368100    3.26062400
 O                  0.63050000    7.48697800    2.27185600
 O                 -0.75254100    2.37615500    3.56841600
 O                  1.83607200    5.51833600    1.08904100
 H                 -1.17677100    8.11832500    4.02421900
 H                 -2.93445700    7.64850600    5.71187900
 H                 -3.52874400    5.29138600    6.25618900
 H                 -2.35843500    3.42750200    5.10803600
 H                  1.82306300    6.49909600    1.10299900
 C                  2.50072200    2.21571700    2.37142300
 C                  2.30400700    1.41114500    3.50274800
 C                  3.81399200    2.52191700    1.99696800
 C                  4.90403700    2.04879700    2.73048400
 C                  4.69521000    1.25184700    3.85475500
 C                  3.38949400    0.93428900    4.23595800
 H                  1.29247700    1.17143300    3.80839200
 H                  3.98699600    3.13722700    1.11961000
 H                  5.91292900    2.29899300    2.41982000
 H                  3.21702100    0.31361600    5.10910600
 H                  5.53825200    0.87957500    4.42642300
 C                  1.32490600    2.75419600    1.53653500
 H                  1.77601000    3.21712400    0.65555100
 N                  0.38861600    1.73986600    1.02897500
 C                  1.00354700    0.69302600    0.21293200
 C                 -0.04928600   -0.25949600   -0.35583100
 C                  0.55150300   -1.36574000   -1.23031800
 C                 -0.49644900   -2.31619500   -1.82064000
 C                  0.10338100   -3.41890300   -2.70050700
 C                 -0.94234000   -4.36648900   -3.29925500
 H                 -0.11996300    1.34830800    1.81713500
 H                  1.75617300    0.10862500    0.76817800
 H                  1.53842300    1.17912700   -0.61286900
 H                 -0.77513900    0.31999300   -0.93820100
 H                 -0.60744500   -0.71413700    0.47313800
 H                  1.27235600   -1.94585600   -0.64004800
 H                  1.12342500   -0.90864700   -2.04833200
 H                 -1.21804100   -1.73613400   -2.41040800
 H                 -1.06839400   -2.77577800   -1.00408500
 H                  0.82234900   -4.00135800   -2.10965900
 H                  0.67919300   -2.95776200   -3.51359100
 H                 -1.66239100   -3.78325900   -3.88802300
 H                 -1.51692200   -4.83051900   -2.48698300
 C                 -0.34086400   -5.46487500   -4.18352600
 C                 -1.38547300   -6.40907500   -4.78956500
 C                 -0.78274500   -7.50392000   -5.67736700
 C                 -1.82677300   -8.44538600   -6.28866100
 C                 -1.22331500   -9.53785800   -7.17886900
 C                 -2.26707000  -10.47766000   -7.79319200
 C                 -1.66326300  -11.56867100   -8.68497600
 C                 -2.70664500  -12.50741900   -9.30102800
 C                 -2.10364100  -13.59789000  -10.19398000
 C                 -3.15405900  -14.53045200  -10.80484100
 H                  0.37651900   -6.05065800   -3.59401400
 H                  0.23708900   -4.99978300   -4.99284500
 H                 -2.10371000   -5.82265800   -5.37740400
 H                 -1.96242600   -6.87651800   -3.98091800
 H                 -0.06651600   -8.09230900   -5.08904500
 H                 -0.20333600   -7.03576200   -6.48387100
 H                 -2.54358000   -7.85656400   -6.87583800
 H                 -2.40550000   -8.91511500   -5.48260500
 H                 -0.50765600  -10.12785000   -6.59146600
 H                 -0.64320900   -9.06771600   -7.98370600
 H                 -2.98312000   -9.88741700   -8.37984400
 H                 -2.84670000  -10.94882400   -6.98863700
 H                 -0.94789700  -12.15969400   -8.09823500
 H                 -1.08285200  -11.09731600   -9.48889400
 H                 -3.42273900  -11.91721900   -9.88795000
 H                 -3.28709900  -12.98043000   -8.49794400
 H                 -1.38854800  -14.18834600   -9.60810000
 H                 -1.52410500  -13.12597400  -10.99690700
 H                 -3.72720700  -15.04329300  -10.02562100
 H                 -2.69159800  -15.29545500  -11.43519900
 H                 -3.86376400  -13.97298300  -11.42470600








