$molecule
-1 2
C                  2.5476690000     -0.8948720000     -0.1357460000
C                  1.2523190000     -0.1420010000      0.0041050000
C                  1.1947500000      1.1902920000      0.3192760000
Cl                 2.7015500000      2.0915060000      0.5791010000
C                 -0.0237870000      1.9739580000      0.4689160000
O                 -0.0384510000      3.1876990000      0.7572660000
C                 -1.2232920000      1.1791010000      0.2435500000
C                 -1.2487430000     -0.1535410000     -0.0743290000
C                 -2.5258170000     -0.9181930000     -0.2950120000
C                  0.0106520000     -0.8825090000     -0.2095910000
O                  0.0254870000     -2.1113490000     -0.5014140000
Cl                -2.7516750000      2.0662370000      0.4085080000
H                  3.1274730000     -0.8646030000      0.7929350000
H                  2.3287750000     -1.9316970000     -0.3894330000
H                  3.1797010000     -0.4574280000     -0.9159330000
H                 -3.1628140000     -0.8939240000      0.5956030000
H                 -3.1118510000     -0.4859150000     -1.1130730000
H                 -2.2819470000     -1.9527600000     -0.5347290000
$end
$rem
   MAX_SCF_CYCLES=200
   BASIS  =  6-311++G(d,p)
   GUI  =  2
   JOB_TYPE  =  SP
   METHOD  =  B3LYP
   SOLVENT_METHOD = COSMO
$end
$solvent
   dielectric 37.219
   opticaldielectric 1.43
$end





