$molecule
-2 1
N                 -4.7629730000      0.3641810000      0.3583680000
C                 -3.7789880000     -0.1876320000      0.6740300000
C                 -2.5953100000     -0.8392160000      1.0431380000
C                 -2.7144110000     -1.9121250000      1.9357130000
N                 -2.8022190000     -2.8109890000      2.6818440000
C                 -1.2858000000     -0.4158020000      0.5168140000
C                 -1.1507380000      0.6623150000     -0.3812240000
C                  0.0867510000      1.0623870000     -0.8786360000
C                  1.2858310000      0.4156950000     -0.5168970000
C                  1.1507780000     -0.6623360000      0.3812010000
C                 -0.0866830000     -1.0624290000      0.8786340000
C                  2.5953610000      0.8391710000     -1.0432340000
C                  3.7790830000      0.1876130000     -0.6742690000
N                  4.7628630000     -0.3645190000     -0.3586290000
C                  2.7144200000      1.9122230000     -1.9355750000
N                  2.8018470000      2.8112940000     -2.6814590000
H                 -2.0403540000      1.1995790000     -0.6963320000
H                  0.1279700000      1.9006250000     -1.5678530000
H                  2.0404230000     -1.1994950000      0.6963530000
H                 -0.1278490000     -1.9005380000      1.5680120000
$end
$rem
   MAX_SCF_CYCLES=200
   BASIS  =  6-311++G(d,p)
   GUI  =  2
   JOB_TYPE  =  SP
   METHOD  =  B3LYP
   SOLVENT_METHOD = COSMO
$end
$solvent
   dielectric 37.219
   opticaldielectric 1.43
$end





