$molecule
0 1
C                  2.1431220000      3.8561910000      5.4456060000
C                  3.0813790000      3.2315970000      4.4830000000
C                  2.6721720000      2.2998280000      3.6142060000
C                  1.2527630000      1.8661310000      3.5802720000
C                  0.3156580000      2.5054340000      4.5343540000
C                  0.7042010000      3.4390900000      5.4193600000
O                  2.5449180000      4.6933030000      6.2433580000
O                  0.8717500000      1.0165150000      2.7917400000
C                 -0.2113410000      4.1393430000      6.4147940000
C                 -1.6596670000      3.6795730000      6.3825760000
O                  0.2659640000      3.9361990000      7.7467590000
H                  4.1088730000      3.5735100000      4.5406190000
H                  3.3381970000      1.8210300000      2.9050770000
H                 -0.7103490000      2.1639110000      4.4636780000
H                 -0.1749360000      5.2124930000      6.1773880000
H                 -2.1157420000      3.8578090000      5.4060960000
H                 -2.2212490000      4.2399560000      7.1312970000
H                 -1.7378900000      2.6174780000      6.6269220000
H                  1.1239390000      4.3757990000      7.8119090000
$end

$rem
   BASIS  =  6-311++G(d,p)
   GUI  =  2
   JOB_TYPE  =  SP
   METHOD  =  B3LYP
   SCF_CONVERGENCE  = 8
   SOLVENT_METHOD = sm12
$end

$smx
   solvent dimethylformamide
   charges CM5
$end





