%chk=254-an.chk
%nproc=8
%mem=30GB
#P UB3LYP/6-311++G(d,p) nosym opt freq SCF=YQC

Reduced

-2 1
 C                 -2.11801500    1.84333900    0.38877200
 C                 -3.14248900    0.98504400    0.72192400
 C                 -2.89733700   -0.40714300    0.81767100
 C                 -0.81532500    1.36138300    0.13759700
 C                 -0.56838000   -0.04428000    0.23204900
 C                 -1.63532400   -0.90281600    0.57482000
 C                  0.24206000    2.29720400   -0.21964700
 C                  1.55354800    1.72609100   -0.45487100
 C                  1.81144800    0.34533200   -0.33013800
 C                  0.75361200   -0.60270400   -0.01437600
 O                 -0.00542800    3.54753100   -0.32217800
 O                  0.95053700   -1.86462900    0.05252100
 C                  2.59521700    2.73226900   -0.90479700
 C                  3.15741900   -0.34635900   -0.53831100
 C                  4.50465100    0.32197200   -0.23104800
 C                  5.68534400   -0.64079900   -0.43478600
 C                  7.04426400   -0.07197500   -0.00513200
 C                  8.22996100   -1.01313200   -0.25663200
 C                  9.59037500   -0.44285100    0.16512500
 C                 10.77389300   -1.38619400   -0.08719100
 C                 12.13217900   -0.82109700    0.34708800
 C                 13.31727500   -1.75534400    0.06932500
 C                 14.67191500   -1.19001500    0.50661300
 Cl                -4.20442900   -1.53665100    1.24892600
 Cl                -4.76592400    1.64985900    1.02658300
 H                 -2.27300600    2.91200100    0.30712100
 H                 -1.41679000   -1.96161400    0.63862700
 H                  2.13013600    3.71991900   -0.88345600
 H                  2.93102800    2.53850900   -1.93524200
 H                  3.47958900    2.75461700   -0.26252500
 H                  3.19422600   -0.76197900   -1.56299900
 H                  3.09492200   -1.26321900    0.05277900
 H                  4.51532400    0.67757100    0.81054600
 H                  4.67846800    1.21001800   -0.83973600
 H                  5.73592700   -0.92829300   -1.49415900
 H                  5.49453100   -1.57668000    0.10643900
 H                  7.00826000    0.18579800    1.06194300
 H                  7.22197800    0.87892600   -0.52560900
 H                  8.26326800   -1.27457700   -1.32288200
 H                  8.05663200   -1.96213400    0.26803800
 H                  9.55860000   -0.17775500    1.23028600
 H                  9.76492000    0.50408000   -0.36303300
 H                 10.81266800   -1.64010400   -1.15494300
 H                 10.59497200   -2.33822400    0.43001200
 H                 12.10311100   -0.58472300    1.41888800
 H                 12.30520800    0.13960500   -0.15556900
 H                 13.34804300   -1.98987500   -1.00233200
 H                 13.14376300   -2.71683200    0.56915200
 H                 14.89929900   -0.25064900   -0.01013300
 H                 15.48978500   -1.88597100    0.29080500
 H                 14.69261500   -0.98722000    1.58341300

















