$molecule
0 1
C                  4.6310200000      1.2097340000     -0.6776150000
C                  3.3275150000      0.5748090000     -0.2628860000
C                  3.3055960000     -0.6891400000      0.3246680000
C                  2.1127790000     -1.3138970000      0.7037810000
O                  2.1397790000     -2.5492910000      1.2609650000
C                  0.8759510000     -0.6660520000      0.4874880000
C                 -0.4212380000     -1.2706720000      0.9299540000
O                 -0.4516690000     -2.2057750000      1.7075650000
C                 -1.6720400000     -0.6523980000      0.3983330000
C                 -2.9343920000     -1.2836840000      0.5267040000
O                 -3.0115940000     -2.5187500000      1.0749320000
C                 -4.0904690000     -0.6512690000      0.0684840000
C                 -4.0274660000      0.6132050000     -0.5099900000
O                 -5.2023390000      1.1657780000     -0.9210250000
C                 -2.8010490000      1.2538870000     -0.6532410000
C                 -1.6447630000      0.6166740000     -0.2112470000
C                 -0.3528270000      1.3372330000     -0.4196660000
O                 -0.3367640000      2.4781440000     -0.8543360000
C                  0.9101180000      0.6038180000     -0.1227990000
C                  2.1096150000      1.2173160000     -0.4801620000
H                  5.4441870000      0.9331750000     -0.0025060000
H                  4.5522490000      2.2982900000     -0.6919810000
H                  4.9153460000      0.8868420000     -1.6849320000
H                  4.2424480000     -1.2127560000      0.5016450000
H                  3.0524120000     -2.8567590000      1.3010750000
H                 -3.9271170000     -2.8193160000      1.0526260000
H                 -5.0559210000     -1.1380360000      0.1607020000
H                 -5.0376870000      2.0348340000     -1.3033140000
H                 -2.7160500000      2.2366080000     -1.1027570000
H                  2.0685700000      2.2004450000     -0.9320700000
$end

$rem
   BASIS  =  6-311++G(d,p)
   GUI  =  2
   JOB_TYPE  =  SP
   METHOD  =  B3LYP
   SCF_CONVERGENCE  = 8
   SOLVENT_METHOD = sm12
$end

$smx
   solvent dimethylformamide
   charges CM5
$end





