$molecule
-2 1
C                 -4.0295130000      0.2879880000      0.2604270000
C                 -2.5593010000      0.0121930000      0.0417150000
C                 -2.1533710000     -1.0646940000     -0.7941800000
C                 -0.8121070000     -1.3254070000     -1.0031740000
C                  0.2081840000     -0.5426160000     -0.4152260000
C                  1.6076350000     -0.8562070000     -0.6818240000
O                  1.9701280000     -1.8304020000     -1.4469590000
C                  2.5469300000     -0.0005770000     -0.0278850000
C                  2.1463990000      1.0523790000      0.8108460000
C                  0.7963840000      1.3981400000      1.1046790000
O                  0.4632450000      2.3762290000      1.8727560000
C                 -0.1899030000      0.5397370000      0.4485880000
C                 -1.5719980000      0.7731430000      0.6451390000
C                  4.0102030000     -0.2738320000     -0.2665350000
H                 -4.5470300000      0.5391600000     -0.6728030000
H                 -4.1818200000      1.1223830000      0.9525320000
H                 -4.5637420000     -0.5841750000      0.6779880000
H                 -2.9112880000     -1.6829680000     -1.2746690000
H                 -0.4910260000     -2.1433440000     -1.6415150000
H                  2.9108690000      1.6741520000      1.2795610000
H                 -1.8314160000      1.5974750000      1.3040380000
H                  4.2813210000     -0.1394790000     -1.3244460000
H                  4.2612160000     -1.3177290000     -0.0327430000
H                  4.6399980000      0.3884510000      0.3404110000
$end
$rem
   MAX_SCF_CYCLES=200
   BASIS  =  6-311++G(d,p)
   GUI  =  2
   JOB_TYPE  =  SP
   METHOD  =  B3LYP
   SOLVENT_METHOD = COSMO
$end
$solvent
   dielectric 37.219
   opticaldielectric 1.43
$end





