%chk=333.chk
%nproc=8
%mem=30GB
#P UB3LYP/6-311++G(d,p) nosym opt freq

Oxidized

0 1
 C                 -1.23377800    1.88886800   -2.91392500
 C                 -2.18157500    1.96137300   -1.78180800
 C                  0.18930300    1.86305800   -2.51460000
 C                  0.56891600    1.50707700   -1.27121900
 C                 -0.49526700    0.91195500   -0.39362800
 C                 -1.82029100    1.60595600   -0.53278400
 C                 -0.31380600   -0.22902900    0.34616800
 C                 -1.37794100   -0.82399800    1.22389600
 C                  1.01118200   -0.92319900    0.48509800
 C                  1.37257400   -1.27880300    1.73400900
 C                  0.42491200   -1.20651700    2.86628500
 C                 -0.99823100   -1.18008200    2.46723900
 O                 -1.58882200    2.01158100   -4.07930800
 O                  0.78028400   -1.32867800    4.03162200
 C                  1.95253700    1.83478500   -0.71832200
 C                  1.86191100    3.13046000    0.11980000
 C                  3.04104100    1.97608200   -1.79012800
 C                  1.81299200   -1.34132100   -0.74363300
 C                  1.16958500   -2.60800400   -1.35265700
 C                  3.30227900   -1.58733700   -0.46956800
 C                 -2.76174700   -1.15139800    0.67124100
 C                 -3.85030200   -1.29163900    1.74313500
 C                 -2.67167000   -2.44762600   -0.16611300
 C                 -2.62212200    2.02455100    0.69578800
 C                 -1.97902900    3.29190900    1.30378100
 C                 -4.11154500    2.26989300    0.42185500
 H                 -3.14326700    2.40715100   -2.00506800
 H                  0.88849000    2.23992300   -3.25114500
 H                  2.33430500   -1.72459100    1.95710100
 H                 -1.69741700   -1.55671000    3.20390200
 H                  2.25332500    1.04954400   -0.02469600
 H                  2.84224000    3.36651600    0.54303100
 H                  1.15936200    3.02650800    0.94830300
 H                  1.54245200    3.97458000   -0.49733100
 H                  3.11109200    1.09017300   -2.42602400
 H                  4.01238700    2.12515300   -1.31178100
 H                  2.86237900    2.84053100   -2.43532700
 H                  1.72721300   -0.56574900   -1.50478100
 H                  1.19335100   -3.43909000   -0.64261600
 H                  1.71887000   -2.90723300   -2.24968000
 H                  0.13184100   -2.43407300   -1.64177800
 H                  3.45514800   -2.45028900    0.18417600
 H                  3.78443800   -0.72362300   -0.00522000
 H                  3.82019700   -1.79773600   -1.40874300
 H                 -3.06220300   -0.36636300   -0.02279900
 H                 -4.82172400   -1.44044400    1.26485600
 H                 -3.91991900   -0.40537400    2.37857700
 H                 -3.67213500   -2.15585900    2.38877000
 H                 -3.65208000   -2.68339800   -0.58930700
 H                 -2.35272700   -3.29152600    0.45158100
 H                 -1.96895500   -2.34454800   -0.99456800
 H                 -2.53594600    1.24947200    1.45742100
 H                 -2.52806800    3.59137000    2.20087300
 H                 -2.00354400    4.12254000    0.59323200
 H                 -0.94106700    3.11867700    1.59249200
 H                 -4.62932700    2.48066700    1.36102500
 H                 -4.59350000    1.40571100   -0.04182500
 H                 -4.26493900    3.13239300   -0.23235300


