$molecule
-2 1
C                 -0.8014290000      3.7904200000     -0.1332010000
C                 -1.8533490000      3.1112850000      0.4496360000
C                 -1.6826620000      1.7610260000      0.8649680000
C                  0.4701140000      3.1884060000     -0.3406010000
C                  0.6385420000      1.8034320000      0.0726640000
C                 -0.4563840000      1.1443430000      0.6704780000
C                  1.5346760000      3.9386680000     -0.9448370000
C                  2.7534860000      3.2209840000     -1.0914600000
C                  2.9174200000      1.8580640000     -0.7422480000
C                  1.8941450000      1.0897280000     -0.1141740000
O                  1.4270430000      5.1751860000     -1.3624710000
O                  2.0603470000     -0.1423520000      0.2600920000
N                  3.8357260000      3.9603520000     -1.6286110000
H                 -0.9054550000      4.8224010000     -0.4564170000
H                 -2.8122640000      3.6091690000      0.5947040000
H                 -2.5067590000      1.2193670000      1.3276440000
H                 -0.2903450000      0.1132370000      0.9709520000
H                  3.4426420000      4.7666270000     -2.1127750000
H                  4.4473840000      3.3789240000     -2.1899510000
N                  4.2123410000      1.2602200000     -1.0464260000
C                  5.0241780000      1.0368400000      0.1470930000
C                  4.1252850000      0.0609050000     -1.8764220000
H                  5.1323930000      1.9847460000      0.6811750000
H                  6.0309520000      0.6924120000     -0.1436640000
H                  4.5751860000      0.2940220000      0.8263550000
H                  3.5753060000      0.3042790000     -2.7912190000
H                  3.6047800000     -0.7649930000     -1.3691830000
H                  5.1411290000     -0.2581420000     -2.1630260000
$end

$rem
   BASIS  =  6-311++G(d,p)
   GUI  =  2
   JOB_TYPE  =  SP
   METHOD  =  B3LYP
   SCF_CONVERGENCE  = 8
   SOLVENT_METHOD = sm12
$end

$smx
   solvent dimethylformamide
   charges CM5
$end





