$molecule
-2 1
C                 -1.8184070000      1.9291280000     -5.1279430000
C                 -1.7255260000      0.6156030000     -5.5374510000
C                 -1.3060450000     -0.3815620000     -4.6105450000
C                 -1.5081090000      2.3308750000     -3.8020370000
C                 -1.0879070000      1.3214750000     -2.8632960000
C                 -0.9983300000     -0.0218090000     -3.3154950000
C                 -1.6114900000      3.7197020000     -3.4381120000
C                 -0.7702210000      1.6336280000     -1.4960730000
C                 -1.2617250000      4.0525310000     -2.0732290000
C                 -0.9030810000      3.0160190000     -1.1044050000
C                 -1.2840420000      5.4301520000     -1.6327940000
C                 -1.0050810000      5.7446430000     -0.3189670000
C                 -0.7098480000      4.7434450000      0.6382360000
C                 -0.6683780000      3.4054920000      0.2769150000
O                 -2.0089900000      4.5939080000     -4.3193590000
O                 -0.3793550000      0.6836200000     -0.6868470000
N                 -1.5363380000      6.4741900000     -2.5628790000
N                 -0.4400200000      2.4053640000      1.2240470000
C                  0.2616120000      2.6889200000      2.4440790000
H                 -2.1317430000      2.7139480000     -5.8087960000
H                 -1.9684400000      0.3409370000     -6.5627100000
H                 -1.2300000000     -1.4214500000     -4.9244050000
H                 -0.6767480000     -0.7566100000     -2.5846290000
H                 -0.9846440000      6.7930040000     -0.0243540000
H                 -0.5357570000      5.0319200000      1.6697700000
H                 -1.8752850000      6.0442460000     -3.4418210000
H                 -2.1769600000      7.1616960000     -2.1854990000
H                 -0.2659480000      1.5051990000      0.7346780000
H                 -0.3502810000      3.2566950000      3.1632720000
H                  1.1931520000      3.2751380000      2.2961530000
H                  0.5320860000      1.7435270000      2.9279790000
$end
$rem
   MAX_SCF_CYCLES=200
   BASIS  =  6-311++G(d,p)
   GUI  =  2
   JOB_TYPE  =  SP
   METHOD  =  B3LYP
   SOLVENT_METHOD = PCM
$end
$pcm
   theory = CPCM
$end
$solvent
   dielectric 37.219
   opticaldielectric 1.43
$end





