%chk=195-rad.chk
%nproc=8
%mem=30GB
#P UB3LYP/6-311++G(d,p) nosym  opt freq

Radical

-1 2
C                  4.7925110000     -3.0421170000      0.3172740000
C                  5.7020860000     -2.2434600000     -0.3467520000
C                  5.2721600000     -1.0554710000     -0.9745050000
C                  3.4282190000     -2.6867060000      0.3788440000
C                  2.9947880000     -1.4906070000     -0.2533770000
C                  3.9417360000     -0.6895370000     -0.9261700000
C                  2.4893170000     -3.5447970000      1.0854420000
C                  1.1015420000     -3.1397290000      1.1186440000
C                  0.6638490000     -1.9347730000      0.4837640000
C                  1.5967380000     -1.0799730000     -0.2178080000
C                  0.1635700000     -3.9648120000      1.8046150000
C                 -1.1769630000     -3.5721270000      1.8364830000
C                 -0.7132980000     -1.5721210000      0.5508720000
C                 -1.6141350000     -2.3843180000      1.2213510000
O                  2.8840560000     -4.6185920000      1.6542870000
O                  1.2173750000     -0.0041250000     -0.7858980000
O                  0.5687020000     -5.0841590000      2.4201740000
H                  5.0970430000     -3.9591470000      0.8069640000
H                  6.7485440000     -2.5286530000     -0.3868130000
H                  5.9892330000     -0.4293630000     -1.4959820000
H                  1.5689050000     -5.1343420000      2.2331750000
O                 -1.1620840000     -0.4389810000     -0.0316160000
H                 -2.6558920000     -2.1001300000      1.2722730000
H                 -0.3527230000     -0.0215110000     -0.4496490000
H                  3.5865420000      0.2175120000     -1.4001190000
S                 -2.4104460000     -4.5933710000      2.6166070000
O                 -3.6574480000     -3.8395740000      2.6586960000
O                 -2.4149850000     -5.9522540000      2.0795970000
O                 -1.9011680000     -4.6740580000      4.1839730000
C                 -1.4163680000     -5.9360730000      4.6910890000
H                 -0.5705070000     -6.2844630000      4.1016240000
H                 -2.2154550000     -6.6794460000      4.6973120000
H                 -1.1037720000     -5.7131130000      5.7112800000


