%chk=110-PCM.chk
%nproc=8
%mem=30GB
#P UB3LYP/6-311++G(d,p) SCRF=(PCM,Solvent=n,n-DiMethylFormamide)

Quinone PCM in DMF 

0 1
C                 -3.9040430000     -4.0237060000     -1.3865490000
C                 -2.6318260000     -4.7750140000     -1.3484890000
C                 -1.4714330000     -4.1030790000     -1.5303950000
C                 -1.4852550000     -2.6108990000     -1.7932650000
C                 -2.7560060000     -1.8631030000     -1.8420690000
C                 -3.8975450000     -2.5529120000     -1.6399690000
O                 -4.9947550000     -4.5603150000     -1.2174580000
O                 -0.4233420000     -2.0269240000     -1.9655450000
C                 -0.1096680000     -4.7432590000     -1.5310940000
C                  0.3368110000     -5.1927230000     -2.9398240000
C                  1.7397230000     -5.8087300000     -2.9438920000
C                  2.1990750000     -6.2609980000     -4.3346550000
C                  3.6022370000     -6.8782900000     -4.3451860000
C                  4.0634380000     -7.3289280000     -5.7358410000
C                  5.4666580000     -7.9458190000     -5.7481320000
C                  5.9277680000     -8.3961650000     -7.1389710000
C                  7.3306300000     -9.0133770000     -7.1522500000
C                  7.7926400000     -9.4637070000     -8.5428330000
C                 -2.7073130000     -0.3878590000     -2.1033280000
C                 -2.7695920000     -6.2519780000     -1.1046790000
O                 -5.1174510000     -1.9903680000     -1.6516410000
H                 -0.0967120000     -5.6007720000     -0.8542940000
H                  0.6127710000     -4.0161270000     -1.1551960000
H                  0.3150500000     -4.3279530000     -3.6109240000
H                 -0.3850190000     -5.9165200000     -3.3366520000
H                  1.7635520000     -6.6655670000     -2.2578040000
H                  2.4541950000     -5.0779460000     -2.5451820000
H                  2.1760030000     -5.4030990000     -5.0186240000
H                  1.4810180000     -6.9884630000     -4.7350120000
H                  3.6254170000     -7.7363070000     -3.6607540000
H                  4.3197770000     -6.1509050000     -3.9441770000
H                  4.0398270000     -6.4707350000     -6.4198740000
H                  3.3453870000     -8.0559990000     -6.1370290000
H                  5.4904530000     -8.8040200000     -5.0639510000
H                  6.1846420000     -7.2187170000     -5.3470840000
H                  5.9041580000     -7.5378290000     -7.8229600000
H                  5.2094520000     -9.1229820000     -7.5402050000
H                  7.3552050000     -9.8723600000     -6.4688120000
H                  8.0498810000     -8.2871320000     -6.7513580000
C                  9.1950520000    -10.0790950000     -8.5459800000
H                  7.7691020000     -8.6056600000     -9.2257360000
H                 -2.1442930000      0.1242620000     -1.3177370000
H                 -3.7114270000      0.0313980000     -2.1499340000
H                 -2.1873120000     -0.1811920000     -3.0425190000
H                 -3.2517920000     -6.4379080000     -0.1405720000
H                 -1.8099490000     -6.7637130000     -1.1221740000
H                 -3.4181790000     -6.7017030000     -1.8614300000
H                  7.0746600000    -10.1897660000     -8.9435150000
H                  9.9412810000     -9.3648680000     -8.1835660000
H                  9.4938340000    -10.3892970000     -9.5512230000
H                  9.2415510000    -10.9609190000     -7.8989990000
H                 -5.7492140000     -2.7147080000     -1.4832110000





