$molecule
-2 1
C                 -0.7279710000      3.1231580000      0.0026690000
C                 -1.8873510000      2.3264420000      0.2866540000
C                 -1.8991070000      0.9305480000      0.2689360000
C                  0.5493080000      2.3725510000     -0.3131740000
C                  0.4855940000      0.9285540000     -0.3099070000
C                 -0.7005400000      0.2481530000     -0.0252670000
O                  1.6283980000      2.9869750000     -0.5584840000
O                 -0.7537870000      4.3871130000      0.0152700000
C                  1.7534840000      0.1722040000     -0.6202860000
C                  2.7733220000      0.1209090000      0.5383310000
C                  4.0660100000     -0.6196020000      0.1781110000
C                  5.0810300000     -0.7018230000      1.3242380000
C                 -3.1633130000      0.1538280000      0.5595440000
C                 -4.2275040000      0.1624490000     -0.5643190000
C                 -5.4616090000     -0.6860780000     -0.2384990000
C                 -6.5495540000     -0.6638550000     -1.3175080000
H                 -2.7985210000      2.8790700000      0.5164590000
H                 -0.7021350000     -0.8427220000     -0.0302380000
H                  2.2520570000      0.6515690000     -1.4736480000
H                  1.5046610000     -0.8584370000     -0.9159620000
H                  2.3045390000     -0.3632150000      1.4057310000
H                  3.0006060000      1.1521080000      0.8267970000
H                  4.5328410000     -0.1225320000     -0.6822050000
H                  3.8220990000     -1.6377870000     -0.1584910000
H                  5.3800430000      0.2977260000      1.6581570000
H                  5.9923250000     -1.2406980000      1.0321330000
H                  4.6578050000     -1.2228400000      2.1907830000
H                 -3.6433060000      0.5460530000      1.4707380000
H                 -2.9013730000     -0.8919010000      0.7734490000
H                 -3.7643410000     -0.1982790000     -1.4904420000
H                 -4.5296800000      1.1987340000     -0.7567850000
H                 -5.8916350000     -0.3458260000      0.7131870000
H                 -5.1487230000     -1.7258980000     -0.0674950000
H                 -6.9221680000      0.3527930000     -1.4860880000
H                 -7.4118430000     -1.2873900000     -1.0468290000
H                 -6.1681600000     -1.0368880000     -2.2746470000
$end
$rem
   MAX_SCF_CYCLES=200
   BASIS  =  6-311++G(d,p)
   GUI  =  2
   JOB_TYPE  =  SP
   METHOD  =  B3LYP
   SOLVENT_METHOD = PCM
$end
$pcm
   theory = CPCM
$end
$solvent
   dielectric 37.219
   opticaldielectric 1.43
$end






