%chk=319-an.chk
%nproc=8
%mem=30GB
#P UB3LYP/6-311++G(d,p) nosym opt freq SCF=YQC

Reduced

-2 1
C                 -0.72797100    3.12315800    0.00266900
 C                 -1.88735100    2.32644200    0.28665400
 C                 -1.89910700    0.93054800    0.26893600
 C                  0.54930800    2.37255100   -0.31317400
 C                  0.48559400    0.92855400   -0.30990700
 C                 -0.70054000    0.24815300   -0.02526700
 O                  1.62839800    2.98697500   -0.55848400
 O                 -0.75378700    4.38711300    0.01527000
 C                  1.75348400    0.17220400   -0.62028600
 C                  2.77332200    0.12090900    0.53833100
 C                  4.06601000   -0.61960200    0.17811100
 C                  5.08103000   -0.70182300    1.32423800
 C                 -3.16331300    0.15382800    0.55954400
 C                 -4.22750400    0.16244900   -0.56431900
 C                 -5.46160900   -0.68607800   -0.23849900
 C                 -6.54955400   -0.66385500   -1.31750800
 H                 -2.79852100    2.87907000    0.51645900
 H                 -0.70213500   -0.84272200   -0.03023800
 H                  2.25205700    0.65156900   -1.47364800
 H                  1.50466100   -0.85843700   -0.91596200
 H                  2.30453900   -0.36321500    1.40573100
 H                  3.00060600    1.15210800    0.82679700
 H                  4.53284100   -0.12253200   -0.68220500
 H                  3.82209900   -1.63778700   -0.15849100
 H                  5.38004300    0.29772600    1.65815700
 H                  5.99232500   -1.24069800    1.03213300
 H                  4.65780500   -1.22284000    2.19078300
 H                 -3.64330600    0.54605300    1.47073800
 H                 -2.90137300   -0.89190100    0.77344900
 H                 -3.76434100   -0.19827900   -1.49044200
 H                 -4.52968000    1.19873400   -0.75678500
 H                 -5.89163500   -0.34582600    0.71318700
 H                 -5.14872300   -1.72589800   -0.06749500
 H                 -6.92216800    0.35279300   -1.48608800
 H                 -7.41184300   -1.28739000   -1.04682900
 H                 -6.16816000   -1.03688800   -2.27464700


















