%chk=070-an.chk
%nproc=8
%mem=30GB
#P UB3LYP/6-311++G(d,p) nosym opt freq SCRF=(PCM,Solvent=n,n-DiMethylFormamide)

Reduced

-2 1
C                  1.0561180000      1.7437770000     -0.6407330000
C                 -0.1374990000      1.2348000000      0.0033720000
C                 -0.4092420000     -0.1287900000      0.1159530000
C                  0.4842070000     -1.1503540000     -0.3994880000
C                  1.6417250000     -0.6665850000     -1.0330160000
C                  1.9052640000      0.7196060000     -1.1598610000
O                  1.3242500000      3.0061440000     -0.7181020000
O                  0.2214960000     -2.4308960000     -0.2823960000
S                  3.3944710000      1.1907060000     -1.9856890000
C                  4.4610210000      2.0338030000     -0.7867860000
C                  4.3593890000      3.4127790000     -0.6049390000
C                  5.3804120000      1.2752570000     -0.0598750000
C                  6.2108730000      1.9103730000      0.8617670000
C                  5.1989580000      4.0381590000      0.3168530000
C                  6.1220230000      3.2911130000      1.0496420000
O                  3.1561160000      2.1493580000     -3.0963170000
O                  4.1314210000     -0.0466310000     -2.3658020000
H                  3.6228870000      3.9690490000     -1.1659050000
H                  5.4507810000      0.2076860000     -0.2247750000
H                  5.1304020000      5.1103660000      0.4624400000
H                  2.3471070000     -1.3776570000     -1.4464220000
H                  6.9307670000      1.3284700000      1.4259390000
C                 -1.6745200000     -0.5851070000      0.8046100000
C                 -1.1002950000      2.2524080000      0.5721250000
H                  6.7714020000      3.7830360000      1.7653330000
H                 -1.7195020000     -0.2448870000      1.8466350000
H                 -1.7244590000     -1.6736220000      0.7944950000
H                 -2.5725150000     -0.1906630000      0.3133420000
H                 -0.7318620000      3.2574590000      0.3671150000
H                 -1.2190560000      2.1456800000      1.6580430000
H                 -2.1037950000      2.1558530000      0.1402000000





