%chk=247-an.chk
%nproc=8
%mem=30GB
#P UB3LYP/6-311++G(d,p) nosym opt freq

Reduced

-2 1
C                 -3.1973710000      1.3943400000      0.1809320000
C                 -2.3862450000      0.6702600000     -0.9162500000
C                 -1.0252600000      0.1981570000     -0.4637060000
C                 -0.8295320000     -1.1204060000      0.0284010000
C                 -1.9911370000     -2.0816390000      0.1506440000
C                  0.4457470000     -1.6221680000      0.4324600000
O                  0.6377720000     -2.8204880000      0.8821690000
C                  1.5495100000     -0.6776730000      0.3077940000
C                  2.8542720000     -1.0691270000      0.6885290000
C                  3.9377690000     -0.2140660000      0.5853450000
C                  3.7494080000      1.0983480000      0.0824490000
C                  2.4808010000      1.5097080000     -0.2898080000
C                  1.3568110000      0.6593880000     -0.1900830000
C                  0.0415730000      1.1466200000     -0.5930390000
O                 -0.1246800000      2.3428630000     -1.0432070000
H                 -4.1826650000      1.7185500000     -0.1930090000
H                 -2.6493130000      2.2766380000      0.5225680000
H                 -3.3684300000      0.7417260000      1.0442540000
H                 -2.9860240000     -0.1660890000     -1.2992600000
H                 -2.2363390000      1.3820360000     -1.7367070000
H                 -1.6339570000     -2.9801660000      0.6599230000
H                 -2.8364870000     -1.6606760000      0.7168640000
H                 -2.3945620000     -2.3840890000     -0.8279750000
H                  2.9630540000     -2.0811550000      1.0668730000
H                  4.9306730000     -0.5473540000      0.8848870000
H                  4.5961770000      1.7775040000     -0.0069430000
H                  2.2984350000      2.5089600000     -0.6741050000


