$molecule
-1 2
C                  4.8622850000     -2.8569540000     -0.3600190000
C                  5.5926090000     -1.9624130000     -1.1152680000
C                  5.0057840000     -0.7476230000     -1.5313360000
C                  3.5266920000     -2.5758870000      0.0057570000
C                  2.9350200000     -1.3560370000     -0.4120180000
C                  3.7018910000     -0.4557290000     -1.1821770000
C                  2.7796990000     -3.5265930000      0.8065650000
C                  1.4143420000     -3.1943860000      1.1529750000
C                  0.7935380000     -1.9736540000      0.7135530000
C                  1.5545590000     -1.0052610000     -0.0684480000
C                  0.6800710000     -4.1086700000      1.9655180000
C                 -0.6230030000     -3.8137890000      2.3362000000
C                 -0.5709940000     -1.6975300000      1.0737270000
C                 -1.2152370000     -2.6326260000      1.8876400000
O                  3.3237140000     -4.6195680000      1.1943080000
O                  1.0842740000      0.1077480000     -0.4486390000
O                  1.2307960000     -5.2652250000      2.3960730000
Br                -3.0427490000     -2.2942850000      2.4464800000
N                 -1.2179600000     -0.5789340000      0.5938100000
H                  5.2872040000     -3.7956900000     -0.0253750000
H                  6.6179220000     -2.1911630000     -1.3898460000
H                  5.5803940000     -0.0439550000     -2.1259620000
H                  3.2275600000      0.4689700000     -1.4879380000
H                 -1.1638280000     -4.5091410000      2.9639710000
H                  2.1666310000     -5.2571910000      2.0150360000
H                 -0.5862960000      0.1022030000      0.1721350000
H                 -2.0186440000     -0.2597910000      1.1146990000
$end

$rem
   BASIS  =  6-311++G(d,p)
   GUI  =  2
   JOB_TYPE  =  SP
   METHOD  =  B3LYP
   SCF_CONVERGENCE  = 8
   SOLVENT_METHOD = sm12
$end

$smx
   solvent dimethylformamide
   charges CM5
$end





