$molecule
-2 1
C                 -0.1302950000     -0.8155980000      1.5094200000
C                 -0.1832220000     -0.7484010000      0.0439470000
C                 -0.6759460000     -1.8550860000     -0.6909450000
C                 -1.1654430000     -3.0591970000     -0.1232170000
C                 -1.1085740000     -3.0939560000      1.3325800000
C                 -0.6284180000     -2.0576990000      2.0821920000
O                  0.3564290000      0.0802970000      2.2480760000
O                 -1.6423140000     -4.0489380000     -0.7906860000
C                  0.4679540000      0.3502140000     -0.6570120000
H                 -1.4814860000     -4.0007770000      1.8090700000
H                 -0.7463350000     -1.7775340000     -1.7731120000
H                 -0.6080870000     -2.1103920000      3.1693700000
C                  0.4230000000      1.7647350000     -0.3564350000
C                  1.2891040000      2.6652040000     -1.0298880000
C                  2.1231330000      2.2525320000     -2.0433500000
C                  2.1123510000      0.8925940000     -2.4314380000
C                  1.3048070000      0.0000540000     -1.7521400000
N                 -0.5602880000      2.3666740000      0.4671300000
O                 -0.5712730000      3.6427110000      0.5781150000
O                 -1.4129590000      1.6636960000      1.0370270000
H                  1.2417390000      3.7020400000     -0.7274640000
H                  2.7781740000      2.9670190000     -2.5357470000
H                  2.7705100000      0.5362380000     -3.2202330000
H                  1.3542830000     -1.0524800000     -2.0050320000
$end
$rem
   MAX_SCF_CYCLES=200
   BASIS  =  6-311++G(d,p)
   GUI  =  2
   JOB_TYPE  =  SP
   METHOD  =  B3LYP
   SOLVENT_METHOD = PCM
$end
$pcm
   theory = CPCM
$end
$solvent
   dielectric 37.219
   opticaldielectric 1.43
$end





