%chk=297-an.chk
%nproc=8
%mem=30GB
#P UB3LYP/6-311++G(d,p) nosym opt freq

Reduced

-2 1
C                 -0.7992670000      2.8575380000      0.3569890000
C                 -1.4907430000      2.9592500000     -0.8324690000
C                 -1.0246940000      2.2821880000     -1.9878320000
C                  0.3882430000      2.0818840000      0.4658490000
C                  0.8615310000      1.3913970000     -0.7107480000
C                  0.1302240000      1.5182010000     -1.9056020000
C                  1.0899130000      1.9896910000      1.7061720000
C                  2.2600710000      1.1859990000      1.7027320000
C                  2.7549520000      0.5023310000      0.5717840000
C                  2.0820480000      0.5655820000     -0.7037410000
O                  0.7520950000      2.5687700000      2.8315460000
O                  2.4780680000     -0.0421770000     -1.7432640000
O                  2.8767510000      1.1432450000      2.9219960000
H                 -1.1388740000      3.3667390000      1.2533510000
H                 -2.3972020000      3.5603710000     -0.8846710000
H                 -1.5684810000      2.3602540000     -2.9265410000
H                  0.5156740000      0.9841170000     -2.7686160000
H                  2.2515870000      1.7233320000      3.4317750000
S                  4.3162910000     -0.3448970000      0.6850360000
C                  3.9428410000     -2.0852680000      0.7874440000
C                  2.6499260000     -2.6123100000      0.6630320000
C                  5.0011590000     -2.9821110000      0.9949730000
C                  2.4365140000     -3.9842010000      0.7510020000
C                  4.7737960000     -4.3546530000      1.0781760000
C                  3.4866200000     -4.8889500000      0.9596270000
C                  3.2357360000     -6.3773860000      1.0489920000
H                  1.8249490000     -1.9319300000      0.4898020000
H                  6.0126070000     -2.5981300000      1.0964670000
H                  1.4215450000     -4.3628170000      0.6483530000
H                  5.6160710000     -5.0237560000      1.2440680000
H                  4.1586350000     -6.9290000000      1.2541470000
H                  2.8180290000     -6.7789740000      0.1172150000
H                  2.5256430000     -6.6258680000      1.8479530000


