%chk=143-rad-PCM.chk
%nproc=8
%mem=30GB
#P UB3LYP/6-311++G(d,p) SCRF=(PCM,Solvent=n,n-DiMethylFormamide)

Radical PCM in DMF 

-1 2
C                  4.0673440000      1.6596040000      0.1972350000
C                  3.2449780000      0.4812870000      0.6439810000
O                  3.0118830000      0.1773440000      1.7843120000
O                  2.8335840000     -0.2378820000     -0.4388610000
C                  1.7795320000     -1.1474410000     -0.2908870000
C                  2.1118670000     -2.4812120000     -0.3672350000
C                  1.1000670000     -3.4593100000     -0.3268820000
C                 -0.2169360000     -3.0704060000     -0.2187500000
C                 -0.5758310000     -1.7076520000     -0.1477760000
C                 -2.0034630000     -1.3851760000     -0.0627160000
O                 -2.8825550000     -2.2810270000     -0.0364720000
C                 -2.3472440000      0.0342090000     -0.0199540000
C                 -3.7051110000      0.4167250000      0.0475290000
C                 -4.0699650000      1.7469880000      0.0896050000
C                 -3.0750970000      2.7490520000      0.0674030000
C                 -1.7422170000      2.3963170000      0.0031360000
C                 -1.3448930000      1.0412090000     -0.0441430000
C                  0.0861090000      0.7273420000     -0.1097950000
O                  0.9410720000      1.6507680000     -0.1053420000
C                  0.4378130000     -0.6933500000     -0.1765760000
H                  4.7442250000      1.3782850000     -0.6121290000
H                  4.6235380000      2.0637040000      1.0421130000
H                  3.3658030000      2.4053540000     -0.1830940000
H                  3.1573980000     -2.7514290000     -0.4603750000
H                  1.3637460000     -4.5106370000     -0.3820000000
H                 -1.0235920000     -3.7928140000     -0.1900830000
H                 -4.4445460000     -0.3755300000      0.0650850000
H                 -5.1186690000      2.0243010000      0.1413550000
H                 -3.3598350000      3.7964850000      0.1026930000
H                 -0.9590060000      3.1448910000     -0.0113770000





