$molecule
-1 2
C                  5.9276950000     -5.2202570000      1.1065870000
C                  6.8254070000     -5.0812700000      0.0635210000
C                  6.6134990000     -4.0956730000     -0.9184650000
C                  4.7970500000     -4.3861620000      1.2032150000
C                  4.5842630000     -3.3963590000      0.2170660000
C                  5.5080100000     -3.2682360000     -0.8382370000
C                  3.8678800000     -4.5732960000      2.3348120000
C                  2.7351090000     -3.6689980000      2.3483590000
C                  2.5264430000     -2.6983640000      1.3813350000
C                  3.4200100000     -2.4899120000      0.2591850000
O                  4.0640940000     -5.4511990000      3.2016980000
O                  3.2400880000     -1.6179720000     -0.6172070000
H                  6.0635870000     -5.9695070000      1.8776670000
H                  5.3176100000     -2.5002380000     -1.5787260000
Br                 1.5285600000     -3.9151940000      3.8209310000
Br                 1.0132650000     -1.5182910000      1.4330180000
H                  7.6926600000     -5.7317430000      0.0022790000
H                  7.3171080000     -3.9850180000     -1.7380280000
$end

$rem
   BASIS  =  6-311++G(d,p)
   GUI  =  2
   JOB_TYPE  =  SP
   METHOD  =  B3LYP
   SCF_CONVERGENCE  = 8
   SOLVENT_METHOD = sm12
$end

$smx
   solvent dimethylformamide
   charges CM5
$end





