%chk=214-an-PCM.chk
%nproc=8
%mem=30GB
#P UB3LYP/6-311++G(d,p) SCRF=(PCM,Solvent=n,n-DiMethylFormamide)

Reduced 

-2 1
C                  5.0647390000     -2.2622240000      0.6670290000
C                  5.8839250000     -1.4354870000     -0.0745640000
C                  5.3105280000     -0.5478580000     -1.0264250000
C                  3.6555720000     -2.2612800000      0.5163560000
C                  3.0728350000     -1.3594660000     -0.4521850000
C                  3.9413280000     -0.5239210000     -1.1976490000
C                  2.8557210000     -3.1614880000      1.3287750000
C                  1.4242180000     -3.0818030000      1.0977750000
C                  0.8442840000     -2.1813010000      0.1296080000
C                  1.6418130000     -1.2837170000     -0.6858030000
C                  0.5549950000     -3.9205180000      1.8412220000
C                 -0.5635770000     -2.1950730000     -0.0262120000
C                 -1.3762210000     -3.0319880000      0.7084000000
O                  3.3751220000     -3.9621170000      2.1787600000
O                  1.1262780000     -0.4879410000     -1.5435110000
H                  5.4715010000     -2.9509120000      1.4009840000
H                  6.9626900000     -1.4608810000      0.0672780000
H                  5.9491170000      0.1079140000     -1.6152110000
H                 -2.4529240000     -3.0263890000      0.5461960000
H                  3.4728370000      0.1416220000     -1.9160420000
H                  1.0274020000     -4.5841590000      2.5603010000
H                 -0.9771460000     -1.5176350000     -0.7666190000
C                 -0.8162730000     -3.9234640000      1.6719330000
C                 -1.7221610000     -4.8187950000      2.4944610000
C                 -2.3819780000     -4.0692360000      3.6503280000
O                 -3.3131890000     -4.9400670000      4.3196710000
H                 -1.1544270000     -5.6614440000      2.9020350000
H                 -2.5183760000     -5.2404370000      1.8672260000
H                 -2.9037320000     -3.1843140000      3.2645760000
H                 -1.6109730000     -3.7238620000      4.3517260000
H                 -3.7661580000     -4.4373190000      5.0140040000





