%chk=056.chk
%nproc=8
%mem=30GB
#P UB3LYP/6-311++G(d,p) nosym opt freq

Oxidized

0 1
C         -0.52225        1.04334       -0.26714
C         -1.49525        0.07662       -0.82526
C         -1.27620       -1.23900       -0.73114
C         -0.05755       -1.73772       -0.06726
C          0.92400       -0.78159        0.49538
C          0.72734        0.55799        0.41414
O         -0.75854        2.23683       -0.37332
O          0.14132       -2.93908        0.01804
C          1.71120        1.55193        0.97882
C          2.99588        1.18840        1.68185
O          1.47272        2.74537        0.87156
H         -2.39490        0.43721       -1.31552
H         -1.99656       -1.93907       -1.14403
H          1.79366       -1.21217        0.96762
H          3.19107        0.10750        1.76747
H          2.97706        1.60572        2.71057
H          3.84966        1.63829        1.13283






