$molecule
-1 2
C                  6.8815660000     -1.6257410000     -0.2432460000
C                  7.4607990000     -0.6700820000     -1.0570140000
C                  6.6341060000      0.3453480000     -1.6264570000
C                  5.2803890000      0.3407000000     -1.3463640000
C                  4.6776120000     -0.6294540000     -0.5173020000
C                  5.5011590000     -1.6407810000      0.0501480000
C                  4.9615120000     -2.6856430000      0.9207930000
C                  3.5211320000     -2.6244500000      1.1708280000
C                  2.6975860000     -1.6131150000      0.6033990000
C                  3.2372420000     -0.5682570000     -0.2672650000
C                  2.9183500000     -3.5946110000      1.9998700000
C                  1.5646310000     -3.5992550000      2.2799800000
C                  0.7379540000     -2.5837970000      1.7105920000
C                  1.3171920000     -1.6281310000      0.8968230000
O                  5.6900270000     -3.5802300000      1.4227240000
O                  2.5087200000      0.3263300000     -0.7691840000
C                  0.9725060000     -4.6633970000      3.1745640000
C                 -0.7464790000     -2.5512260000      1.9910700000
C                  8.9452530000     -0.7025080000     -1.3373770000
C                  7.2262740000      1.4094730000     -2.5210280000
H                  7.4854090000     -2.4091780000      0.2030580000
H                  4.6280950000      1.1000240000     -1.7653240000
H                  3.5706300000     -4.3539620000      2.4188040000
H                  0.7133430000     -0.8446890000      0.4505370000
H                  1.7476090000     -5.3521350000      3.5180080000
H                  0.2055260000     -5.2540240000      2.6580580000
H                  0.4907420000     -4.2330950000      4.0614570000
H                 -0.9598810000     -2.4492000000      3.0624760000
H                 -1.2476190000     -3.4689670000      1.6587360000
H                 -1.2167600000     -1.7102560000      1.4765770000
H                  9.4155340000     -1.5435660000     -0.8230400000
H                  9.4462850000      0.2152020000     -1.0047680000
H                  9.1587590000     -0.8041860000     -2.4087980000
H                  7.7084460000      0.9791130000     -3.4076680000
H                  7.9929330000      2.0003830000     -2.0043630000
H                  6.4511180000      2.0979520000     -2.8648720000
$end
$rem
   MAX_SCF_CYCLES=200
   BASIS  =  6-311++G(d,p)
   GUI  =  2
   JOB_TYPE  =  SP
   METHOD  =  B3LYP
   SOLVENT_METHOD = PCM
$end
$pcm
   theory = CPCM
$end
$solvent
   dielectric 37.219
   opticaldielectric 1.43
$end





