$molecule
0 1
C                 -1.4191230000      1.9948810000     -4.7408910000
C                 -1.4900660000      0.6359580000     -5.0122710000
C                 -1.3955770000     -0.2937730000     -3.9698970000
C                 -1.2527220000      2.4423750000     -3.4235460000
C                 -1.1580580000      1.5116630000     -2.3800950000
C                 -1.2306610000      0.1411900000     -2.6626170000
C                 -1.1793630000      3.8990950000     -3.1542010000
C                 -0.9814300000      1.9562990000     -0.9761290000
C                 -1.0054040000      4.3482520000     -1.7715680000
C                 -0.9079930000      3.3921830000     -0.6997430000
C                 -0.9332020000      5.7431850000     -1.4960810000
C                 -0.7637870000      6.1449490000     -0.1417270000
C                 -0.6712990000      5.2373790000      0.8757160000
C                 -0.7387160000      3.8354320000      0.6425850000
O                 -1.2680720000      4.6891480000     -4.1109240000
O                 -0.9019750000      1.0952630000     -0.0818780000
H                 -1.4896650000      2.7328500000     -5.5297430000
H                 -1.6188870000      0.2940880000     -6.0332080000
H                 -1.4512620000     -1.3553020000     -4.1839940000
H                 -1.1550500000     -0.5582840000     -1.8398920000
H                 -0.5429630000      5.5997550000      1.8872190000
H                 -0.7059900000      7.1995090000      0.0938300000
N                 -1.0199920000      6.6847920000     -2.4730070000
N                 -0.6414280000      2.9723140000      1.6885780000
C                 -0.9530530000      8.1131480000     -2.2548430000
C                 -0.4683510000      3.3621970000      3.0707170000
H                 -1.1396000000      6.3101750000     -3.4105140000
H                 -0.6993000000      1.9903000000      1.4319210000
H                  0.0025240000      8.4220500000     -1.8138030000
H                 -1.7623950000      8.4732990000     -1.6080710000
H                 -1.0512610000      8.6086250000     -3.2204820000
H                 -1.3031090000      3.9712540000      3.4385310000
H                  0.4617190000      3.9208500000      3.2317780000
H                 -0.4233910000      2.4566790000      3.6753820000
$end
$rem
   MAX_SCF_CYCLES=200
   BASIS  =  6-311++G(d,p)
   GUI  =  2
   JOB_TYPE  =  SP
   METHOD  =  B3LYP
   SOLVENT_METHOD = COSMO
$end
$solvent
   dielectric 37.219
   opticaldielectric 1.43
$end





