%chk=164-PCM.chk
%nproc=8
%mem=30GB
#P UB3LYP/6-311++G(d,p) SCRF=(PCM,Solvent=n,n-DiMethylFormamide)

Quinone PCM in DMF 

0 1
N                  3.28967300   -1.32588800   -3.00657500
 C                  2.63154700   -0.09165800   -2.76429100
 C                  1.95276700    0.16046300   -1.57045300
 C                  2.72953400    0.90105100   -3.74252600
 C                  1.32448300    1.39737600   -1.35047100
 C                  2.14231400    2.13809100   -3.50873000
 C                  1.44361200    2.40610400   -2.33686100
 S                  0.82395000    4.12186400   -2.11950600
 O                 -0.42133400    3.94612700   -1.30798300
 O                  1.91159000    4.81264700   -1.39336400
 O                  0.58609900    4.61188100   -3.49405300
 N                  0.55779600    1.67801200   -0.20708900
 C                  0.30479500    0.94506700    0.90276600
 N                  0.91425200   -0.25266600    1.08934200
 C                  0.56658700   -0.84324300    2.21544800
 N                 -0.25974700   -0.44645300    3.14093200
 C                 -0.82885100    0.77309300    2.85824600
 N                 -0.57308200    1.49056400    1.76857900
 Cl                 1.33940800   -2.42019800    2.50185200
 N                 -1.69745500    1.18619300    3.80938700
 C                 -2.52856200    2.32766200    3.93531200
 C                 -2.55713100    3.38829400    3.02691200
 C                 -3.35792600    2.35007300    5.06800500
 C                 -3.42301200    4.45720700    3.27441300
 C                 -4.21103300    3.41805400    5.29557700
 C                 -4.24726200    4.48438900    4.39419800
 S                 -5.30570200    3.40800400    6.76623200
 O                 -4.86490400    2.21862600    7.54340000
 O                 -5.03945800    4.70858500    7.43305300
 O                 -6.67603600    3.29187000    6.20299000
 H                  4.21114300   -1.29486600   -3.44672600
 H                  1.92560900   -0.57734500   -0.78581300
 H                  3.25252500    0.69980900   -4.67095100
 H                  2.19826600    2.92531400   -4.25068500
 H                  0.02893300    2.56368300   -0.28025600
 H                 -1.77861800    0.51882100    4.56370500
 H                 -1.92266700    3.37937800    2.15415800
 H                 -3.34830200    1.53974300    5.79040100
 H                 -3.44187000    5.28141800    2.56889300
 H                 -4.91057400    5.31987600    4.58176400
 C                  2.87593600   -2.58897100   -2.72516800
 C                  3.73051100   -3.71547600   -2.91559800
 C                  1.54306900   -2.82807000   -2.26707700
 C                  1.10781000   -4.07987300   -1.96658600
 C                  3.26150200   -5.04373700   -2.57877700
 C                  1.94864400   -5.22222900   -2.08974800
 C                  4.13307500   -6.20643800   -2.70913600
 C                  5.51172100   -5.99246800   -3.21402300
 C                  5.95639700   -4.71098200   -3.56866600
 C                  5.06890100   -3.52503100   -3.44727600
 C                  6.37609400   -7.08909300   -3.34202100
 C                  7.66740800   -6.91072900   -3.81528800
 C                  8.11217600   -5.63036700   -4.17014700
 C                  7.26278600   -4.54065700   -4.04916200
 O                  3.77471800   -7.36353000   -2.41358700
 O                  5.51283100   -2.41494400   -3.80729000
 N                  1.42869900   -6.44045700   -1.76693400
 H                  0.86689200   -1.99101300   -2.17209400
 H                  0.08648400   -4.22230900   -1.62774300
 H                  6.00510200   -8.06684500   -3.06107600
 H                  8.33306900   -7.76217400   -3.91001500
 H                  9.12286400   -5.49029600   -4.53884900
 H                  7.58075400   -3.54066200   -4.31606000
 H                  2.06742300   -7.22884400   -1.77372900
 H                  0.56947800   -6.47526100   -1.24430000





