$molecule
0 1
C                 -1.3010380000      2.0391240000      0.5582730000
C                 -2.6162510000      1.3963040000      0.2175340000
C                 -2.6964830000      0.1630750000     -0.2984740000
C                 -1.4775300000     -0.6383320000     -0.5618950000
C                 -0.1662460000     -0.0349590000     -0.2374800000
C                 -0.0834270000      1.1982830000      0.2785650000
O                 -1.5555160000     -1.7604670000     -1.0318090000
H                 -3.6398960000     -0.3067520000     -0.5465830000
O                 -1.2195490000      3.1490120000      1.0230870000
Cl                 1.4374260000      1.9291220000      0.6676510000
Br                -4.1600940000      2.4379230000      0.5626360000
H                  0.7089130000     -0.6399610000     -0.4388340000
$end
$rem
   MAX_SCF_CYCLES=200
   BASIS  =  6-311++G(d,p)
   GUI  =  2
   JOB_TYPE  =  SP
   METHOD  =  B3LYP
   SOLVENT_METHOD = COSMO
$end
$solvent
   dielectric 37.219
   opticaldielectric 1.43
$end





