$molecule
0 1
C                 -1.0743710000      1.5710550000      1.0141940000
C                 -2.3931890000      0.9035660000      0.9207090000
C                 -2.7191880000     -0.0453960000      0.0224490000
C                 -1.6521990000     -0.4540800000     -0.9603910000
C                 -0.3206070000      0.2018430000     -0.8860520000
C                 -0.0386070000      1.1411940000      0.0232270000
Br                 1.6586090000      1.9796260000      0.1212870000
C                 -4.0968450000     -0.7105610000     -0.0404350000
C                 -4.7429910000     -0.4406610000     -1.4229250000
C                 -5.0381760000     -0.1553040000      1.0443210000
C                 -3.9495720000     -2.2367020000      0.1849460000
O                 -0.8610750000      2.4202130000      1.8561760000
O                 -1.8335390000     -1.3026450000     -1.8177300000
H                 -3.0952980000      1.2586910000      1.6636740000
H                  0.3989410000     -0.1379210000     -1.6205880000
H                 -4.8529710000      0.6334400000     -1.5990070000
H                 -5.7413430000     -0.8865710000     -1.4476820000
H                 -4.1561560000     -0.8698630000     -2.2334360000
H                 -5.2116520000      0.9181510000      0.9281310000
H                 -4.6565010000     -0.3375430000      2.0527830000
H                 -6.0069160000     -0.6541910000      0.9653710000
H                 -3.3459190000     -2.7030670000     -0.5919800000
H                 -4.9402550000     -2.6999170000      0.1752400000
H                 -3.4934210000     -2.4450070000      1.1572280000
$end
$rem
   MAX_SCF_CYCLES=200
   BASIS  =  6-311++G(d,p)
   GUI  =  2
   JOB_TYPE  =  SP
   METHOD  =  B3LYP
   SOLVENT_METHOD = PCM
$end
$pcm
   theory = CPCM
$end
$solvent
   dielectric 37.219
   opticaldielectric 1.43
$end





