%chk=170.chk
%nproc=8
%mem=30GB
#P UB3LYP/6-311++G(d,p) nosym opt freq SCRF=(PCM,Solvent=n,n-DiMethylFormamide)

Oxidized

0 1
C                  3.9276500000      1.2700870000     -1.3009740000
N                  2.5310420000      1.0589270000     -0.9840590000
C                  2.0496970000      0.0024160000     -0.2831400000
C                  2.9282310000     -1.0011840000      0.1990080000
C                  2.4534050000     -2.0829020000      0.9139140000
C                  1.0902300000     -2.2237120000      1.1855820000
C                  0.2003730000     -1.2613190000      0.7297220000
C                 -1.2483170000     -1.4623440000      1.0491730000
O                 -1.6280700000     -2.4338720000      1.6840760000
C                 -2.2100590000     -0.4368560000      0.5655120000
C                 -3.5729420000     -0.5862430000      0.8421580000
C                 -4.4826550000      0.3642590000      0.3964370000
C                 -4.0358880000      1.4721940000     -0.3298920000
C                 -2.6831420000      1.6268130000     -0.6083230000
C                 -1.7599740000      0.6744500000     -0.1633690000
C                 -0.3132120000      0.8679020000     -0.4782810000
O                  0.0276030000      1.8672440000     -1.1249890000
C                  0.6470010000     -0.1345500000     -0.0082850000
H                  4.3377240000      0.4590190000     -1.9140450000
H                  4.5441830000      1.3660340000     -0.3995900000
H                  4.0121970000      2.1969310000     -1.8676490000
H                  1.8313980000      1.7276960000     -1.2893780000
H                  3.9885890000     -0.9164990000      0.0023200000
H                  3.1530040000     -2.8322590000      1.2679020000
H                  0.7068690000     -3.0666830000      1.7444340000
H                 -3.8925160000     -1.4535080000      1.4065590000
H                 -5.5386140000      0.2465940000      0.6119260000
H                 -4.7462620000      2.2138460000     -0.6775920000
H                 -2.3175430000      2.4775170000     -1.1691550000


