%chk=311-rad.chk
%nproc=8
%mem=30GB
#P UB3LYP/6-311++G(d,p) nosym  opt freq

Radical

-1 2
C                 -4.9034840000      0.0167700000     -4.1240950000
C                 -4.0585360000     -0.0039810000     -5.2149120000
C                 -2.6625930000     -0.0335480000     -5.0439840000
C                 -4.3748430000      0.0087330000     -2.8142630000
C                 -2.9676870000     -0.0209970000     -2.6269590000
C                 -2.1398810000     -0.0414980000     -3.7615510000
C                 -5.2481290000      0.0305210000     -1.6673590000
C                 -4.6313610000      0.0211370000     -0.3547110000
C                 -3.2688500000     -0.0074740000     -0.1315490000
C                 -2.3717840000     -0.0298770000     -1.2768380000
O                 -6.5243600000      0.0575450000     -1.7256440000
O                 -1.1240170000     -0.0561540000     -1.1273310000
O                 -5.5612630000      0.0444270000      0.6445730000
O                 -4.5338840000      0.0033070000     -6.5167570000
C                 -2.5722550000     -0.0171420000      1.2149880000
C                 -3.4098030000     -0.0032910000      2.4992030000
C                 -2.5266510000     -0.0173510000      3.7532620000
C                 -3.3210300000     -0.0017860000      5.0643670000
C                 -2.4435010000     -0.0142970000      6.3214370000
C                 -3.2390230000      0.0022430000      7.6318620000
C                 -2.3612390000     -0.0097670000      8.8886540000
C                 -3.1576410000      0.0070690000     10.1984790000
C                 -2.2800480000     -0.0047100000     11.4550960000
C                 -3.0759580000      0.0122930000     12.7651360000
C                 -2.1901310000      0.0002780000     14.0147150000
H                 -5.9836290000      0.0398420000     -4.2396130000
H                 -2.0228320000     -0.0493300000     -5.9191780000
H                 -1.0685070000     -0.0641310000     -3.5979630000
H                 -6.4007460000      0.0608630000      0.1286750000
H                 -5.4955360000      0.0238070000     -6.4802330000
H                 -1.8791100000      0.8350390000      1.2317420000
H                 -1.9059740000     -0.8904260000      1.2325430000
H                 -4.0851040000     -0.8639720000      2.5196620000
H                 -4.0567860000      0.8789270000      2.5193260000
H                 -1.8496330000      0.8478940000      3.7321360000
H                 -1.8799370000     -0.9053190000      3.7340300000
H                 -3.9969020000     -0.8668320000      5.0867230000
H                 -3.9675510000      0.8854630000      5.0838300000
H                 -1.7676380000      0.8508980000      6.2988570000
H                 -1.7976340000     -0.9024050000      6.3024250000
H                 -3.9145870000     -0.8631180000      7.6548880000
H                 -3.8848430000      0.8900320000      7.6509040000
H                 -1.6857140000      0.8553870000      8.8656390000
H                 -1.7156530000     -0.8977840000      8.8699700000
H                 -3.8331050000     -0.8580280000     10.2216970000
H                 -3.8031550000      0.8951390000     10.2171120000
H                 -1.6042100000      0.8604700000     11.4330830000
H                 -1.6344870000     -0.8928100000     11.4376660000
H                 -3.7506560000     -0.8523380000     12.7881270000
H                 -3.7205050000      0.8997320000     12.7834710000
H                 -1.5582920000     -0.8934030000     14.0426020000
H                 -2.7877540000      0.0129220000     14.9310470000
H                 -1.5279270000      0.8718490000     14.0379190000





