%chk=318-rad.chk
%nproc=8
%mem=30GB
#P UB3LYP/6-311++G(d,p) nosym  opt freq

Radical

-1 2
Br                -2.3365880000      2.1341080000      0.8092370000
C                 -0.9856460000      0.8531360000      0.3359580000
C                 -1.2989900000     -0.4909730000      0.2534320000
Br                -3.0661640000     -1.1517160000      0.5990530000
C                 -0.3280470000     -1.5130130000     -0.0988160000
O                 -0.6041590000     -2.7149950000     -0.1736490000
C                  1.0856550000     -1.0400300000     -0.3818430000
O                  1.9611160000     -1.8568420000     -0.6871870000
C                  1.3294240000      0.3883780000     -0.2726950000
C                  0.3465680000      1.2984700000      0.0692930000
Br                 0.7631330000      3.1701470000      0.1890720000
Br                 3.1336980000      0.9233300000     -0.6418530000


