$molecule
-1 2
C                 -1.6548570000      2.8517870000     -0.7047740000
C                 -2.8650490000      2.1826710000     -0.6994420000
C                 -2.8897820000      0.7879440000     -0.5010050000
C                 -0.4333050000      2.1771120000     -0.5006570000
C                 -0.4612100000      0.7667360000     -0.2632510000
C                 -1.7069230000      0.1001550000     -0.2906870000
C                  0.8221720000      2.9451180000     -0.5717960000
C                  2.0937280000      2.1772220000     -0.4036830000
C                  1.9716110000      0.7610650000     -0.1175630000
C                  0.7857710000      0.0751420000     -0.0331100000
O                  0.8177960000      4.1772980000     -0.7741800000
O                  3.2169210000      2.7266280000     -0.4772230000
H                 -1.6016340000      3.9210930000     -0.8760160000
H                 -3.7913980000      2.7262870000     -0.8609750000
H                 -3.8329910000      0.2498070000     -0.5223230000
H                 -1.7189890000     -0.9762860000     -0.1643940000
H                  2.9166720000      0.2529110000      0.0460560000
N                  0.7276130000     -1.3310990000      0.2720630000
C                  1.8691400000     -2.1256740000     -0.1470270000
C                  0.3595870000     -1.6159900000      1.6568850000
H                  2.1124290000     -1.9020150000     -1.1869040000
H                  1.6115070000     -3.1880590000     -0.0681140000
H                  2.7768750000     -1.9585040000      0.4611480000
H                 -0.5119810000     -1.0264400000      1.9418010000
H                  1.1767370000     -1.3808170000      2.3634870000
H                  0.1098380000     -2.6782820000      1.7637260000
$end
$rem
   MAX_SCF_CYCLES=200
   BASIS  =  6-311++G(d,p)
   GUI  =  2
   JOB_TYPE  =  SP
   METHOD  =  B3LYP
   SOLVENT_METHOD = COSMO
$end
$solvent
   dielectric 37.219
   opticaldielectric 1.43
$end





