$molecule
-1 2
O                  1.6719590000      2.4302580000      0.3914840000
C                  1.4049020000      1.2187630000      0.2031000000
C                  0.0186510000      0.7072620000      0.2067150000
C                 -1.0396590000      1.6075910000      0.4285670000
C                 -2.3570450000      1.1802900000      0.4420520000
C                 -2.6583750000     -0.1802580000      0.2308180000
C                 -1.6366780000     -1.0863630000      0.0103080000
C                 -0.2898610000     -0.6703100000     -0.0069620000
C                  0.7770970000     -1.6266570000     -0.2388910000
O                  0.6264930000     -2.8758510000     -0.4411930000
C                  2.1069530000     -1.0978560000     -0.2358070000
O                  3.1073990000     -2.0147850000     -0.4565920000
C                  2.4259220000      0.2242180000     -0.0321730000
O                  3.7390010000      0.6258730000     -0.0494860000
H                 -0.7819300000      2.6484970000      0.5883570000
H                 -3.1580380000      1.8929790000      0.6152920000
H                 -3.6912670000     -0.5159790000      0.2412810000
H                 -1.8410210000     -2.1384080000     -0.1549610000
H                  2.5988430000     -2.8472260000     -0.5646760000
H                  4.2635740000     -0.1670930000     -0.2180970000
$end
$rem
   MAX_SCF_CYCLES=200
   BASIS  =  6-311++G(d,p)
   GUI  =  2
   JOB_TYPE  =  SP
   METHOD  =  B3LYP
   SOLVENT_METHOD = COSMO
$end
$solvent
   dielectric 37.219
   opticaldielectric 1.43
$end





