$molecule
0 1
C                 -4.3881690000     -0.4533180000     -0.1694230000
C                 -2.9049950000     -0.7072710000     -0.1351970000
C                 -2.4040560000     -1.9758120000     -0.3095350000
C                 -1.0300100000     -2.2550360000     -0.2709960000
Cl                -0.6240120000     -3.9417010000     -0.5213490000
C                 -0.1048120000     -1.2324890000     -0.0625060000
C                  1.3685070000     -1.5069170000      0.0049500000
O                  1.8253270000     -2.6363750000     -0.0135310000
C                  2.2922460000     -0.3418790000      0.1027490000
C                  3.6729390000     -0.5693480000      0.0768250000
C                  4.5557790000      0.4979680000      0.1729040000
C                  4.0674820000      1.8023360000      0.3037890000
C                  2.6989380000      2.0339210000      0.3369650000
C                  1.8037930000      0.9621890000      0.2334370000
C                  0.3432550000      1.2300640000      0.2725420000
O                 -0.0396670000      2.3958260000      0.4335590000
C                 -0.5935610000      0.1061280000      0.1026130000
C                 -1.9950530000      0.3695620000      0.0801820000
N                 -2.4982080000      1.6166440000      0.2651860000
H                 -4.7448270000     -0.0265990000      0.7751110000
H                 -4.6607060000      0.2445200000     -0.9700920000
H                 -4.9361130000     -1.3798900000     -0.3414110000
H                 -3.0869770000     -2.7995220000     -0.4786090000
H                  4.0262870000     -1.5881690000     -0.0193480000
H                  5.6248200000      0.3193540000      0.1480310000
H                  4.7583440000      2.6343090000      0.3809900000
H                  2.2984650000      3.0339650000      0.4422640000
H                 -1.8419430000      2.3815990000      0.3751140000
H                 -3.4830710000      1.7859400000      0.1678530000
$end

$rem
   BASIS  =  6-311++G(d,p)
   GUI  =  2
   JOB_TYPE  =  SP
   METHOD  =  B3LYP
   SCF_CONVERGENCE  = 8
   SOLVENT_METHOD = sm12
$end

$smx
   solvent dimethylformamide
   charges CM5
$end





