%chk=022.chk
%nproc=8
%mem=30GB
#P UB3LYP/6-311++G(d,p) nosym opt freq

Oxidized

0 1
C                 -3.8075660000      0.0274840000     -0.0503070000
O                 -2.6400490000      0.8622460000     -0.2300130000
C                 -1.3792940000      0.4486170000     -0.1834430000
C                 -0.3903700000      1.3807370000     -0.1451830000
Cl                -0.7640190000      3.0738380000     -0.1381050000
C                  1.0328670000      1.0251540000     -0.1142460000
O                  1.9147950000      1.8636730000     -0.1294090000
C                  1.3868850000     -0.4463700000     -0.0620570000
C                  0.3998450000     -1.3778050000     -0.1436330000
Cl                 0.7730060000     -3.0710060000     -0.1452790000
C                 -1.0197730000     -1.0210950000     -0.2439910000
O                 -1.8948250000     -1.8569590000     -0.3737590000
O                  2.6463290000     -0.8615800000      0.0045140000
C                  3.7947360000     -0.0313660000      0.2943850000
H                 -3.7207850000     -0.5809390000      0.8485930000
H                 -4.6203940000      0.7440100000      0.0513820000
H                 -3.9631580000     -0.6142240000     -0.9143940000
H                  4.0173390000      0.6299870000     -0.5397250000
H                  3.6366300000      0.5562460000      1.1973600000
H                  4.5978000000     -0.7506460000      0.4432160000


