%chk=336-rad.chk
%nproc=8
%mem=30GB
#P UB3LYP/6-311++G(d,p) nosym  opt freq SCRF=(PCM,Solvent=n,n-DiMethylFormamide)

Radical

-1 2
O                  0.1205500000      0.4167540000      2.6812970000
C                  0.0803760000      0.2188350000      1.4063370000
C                 -1.1875010000      0.1125640000      0.7089210000
C                 -2.4303350000      0.2207290000      1.3924380000
C                 -3.6257800000      0.1124510000      0.6853270000
C                 -3.6261310000     -0.1027880000     -0.6984950000
C                 -2.4173240000     -0.2111970000     -1.3846150000
C                 -1.2258710000     -0.1027880000     -0.6768710000
O                 -0.0679670000     -0.2212740000     -1.4287950000
C                  1.1677880000     -0.1258810000     -0.8021320000
C                  2.2821550000     -0.2527930000     -1.6085600000
C                  3.5717420000     -0.1670710000     -1.0423320000
C                  3.6977460000      0.0459060000      0.3324170000
C                  2.5723690000      0.1730480000      1.1398090000
C                  1.2618420000      0.0910990000      0.5969820000
O                 -2.4361110000      0.4292980000      2.7329950000
H                 -4.5594830000      0.1984820000      1.2298670000
H                 -4.5540270000     -0.1875580000     -1.2518420000
O                 -2.4065710000     -0.4239330000     -2.7524400000
H                  2.1436440000     -0.4175150000     -2.6716680000
H                  4.4477040000     -0.2664230000     -1.6736610000
H                  4.6861120000      0.1134080000      0.7783720000
H                  2.6553560000      0.3384100000      2.2069080000
H                 -1.4585220000      0.4674960000      2.9881820000
H                 -1.4788860000     -0.4664160000     -3.0166140000


