%chk=252-rad.chk
%nproc=8
%mem=30GB
#P UB3LYP/6-311++G(d,p) nosym opt freq Int=Acc2E=11

Radical

-1 2
C                 -3.46462900    5.53078500    3.47196300
 C                 -2.45514900    6.04760800    4.27154800
 C                 -2.02618700    5.33503300    5.41271700
 C                 -4.07607000    4.29603000    3.77981600
 C                 -3.64398200    3.57957900    4.92839700
 C                 -2.61610500    4.12011400    5.73092500
 C                 -5.14583000    3.77251000    2.91375100
 C                 -5.73157200    2.49833600    3.29041600
 C                 -5.29349300    1.79177400    4.40938700
 C                 -4.25262900    2.28910200    5.28527600
 O                 -5.52525200    4.41885300    1.88989000
 O                 -3.87663500    1.64754700    6.31478600
 H                 -1.99385700    7.00177000    4.02009200
 H                 -1.23381700    5.73913300    6.04142800
 C                 -6.83657200    1.97140500    2.40326000
 H                 -3.81393100    6.05776100    2.58838100
 H                 -2.30691500    3.55039100    6.60297000
 H                 -6.52935500    1.06542800    1.85749100
 H                 -7.09774800    2.73356200    1.66445400
 H                 -7.73337300    1.71011000    2.98036700
 C                 -5.89352200    0.44804200    4.79507500
 C                 -7.02734500    0.58984300    5.78335100
 C                 -8.26286300    0.05655400    5.74866700
 C                 -9.24358400    0.33799000    6.87270400
 C                 -9.56373500   -0.89479800    7.76059700
 C                -10.58584200   -0.58748900    8.82193700
 C                -10.43812800   -0.55051800   10.15939500
 C                 -8.78214300   -0.83567300    4.64234700
 C                -11.61396700   -0.17970500   11.04500500
 C                -11.46068500    1.18564700   11.76627700
 C                -12.63111600    1.49041300   12.66298300
 C                -13.53207500    2.48635600   12.57377700
 C                 -9.14890300   -0.86171300   10.88606600
 C                -13.51692500    3.56249400   11.51157600
 C                -14.65260000    2.59098200   13.59260900
 C                -16.06437300    2.29882700   13.01868300
 C                -17.14529400    2.46877000   14.05316500
 C                -17.97446500    1.54543100   14.57403500
 C                -17.99361500    0.08764200   14.17258200
 C                -18.98792900    1.94409600   15.63154300
 C                -18.70083900    1.36121100   17.04061300
 C                -19.75980300    1.74362100   18.04073500
 C                -19.64847400    2.50657800   19.14384800
 C                -18.35953100    3.13365400   19.62539500
 C                -20.86759900    2.77752300   20.00678300
 C                -21.35752700    4.24938100   19.97297500
 C                -22.53337900    4.47815300   20.88571400
 C                -23.79459900    4.82826100   20.57255500
 C                -24.28507400    5.09790200   19.16784700
 C                -24.83244900    4.99094700   21.66823800
 C                -25.95215500    3.91747100   21.65079300
 C                -26.98241600    4.15271400   22.72379600
 C                -27.29814200    3.37593800   23.77536500
 C                -26.65715700    2.04532900   24.09314900
 C                -28.37041300    3.79780900   24.75482600
 H                 -5.09848900   -0.12924200    5.28713000
 H                 -6.20775600   -0.10659400    3.90545600
 H                 -6.77226300    1.21824200    6.63780300
 H                -10.19123800    0.71554000    6.45309900
 H                 -8.84758400    1.13322400    7.51591700
 H                 -8.62745100   -1.26483500    8.19151500
 H                 -9.95357300   -1.70150900    7.12235500
 H                -11.57523600   -0.33694100    8.42903600
 H                 -8.10208100   -0.88136900    3.78817000
 H                 -9.75575500   -0.47619400    4.27592300
 H                 -8.94029400   -1.86772200    4.98968600
 H                -11.75964400   -0.96001900   11.80985800
 H                -12.53326500   -0.15307700   10.44658000
 H                -11.31188400    1.96506300   11.01194300
 H                -10.54647100    1.16606000   12.37693500
 H                -12.75638100    0.78387800   13.48812200
 H                 -8.36310400   -1.22470500   10.21986200
 H                 -9.31578500   -1.62589400   11.65957100
 H                 -8.75361500    0.02449300   11.40114600
 H                -12.64940000    3.49831400   10.85108300
 H                -13.51222300    4.56000000   11.97425300
 H                -14.41412900    3.51574000   10.87936300
 H                -14.65875900    3.60320300   14.02772300
 H                -14.46579000    1.89622100   14.42089500
 H                -16.06647600    1.29116200   12.58996200
 H                -16.26250500    2.99095000   12.18759600
 H                -17.24402800    3.49012800   14.43029600
 H                -17.30904700   -0.13831300   13.35172300
 H                -19.00398500   -0.21179100   13.85863300
 H                -17.72251600   -0.56388800   15.01446500
 H                -19.99195400    1.61539300   15.31891600
 H                -19.02839900    3.03739400   15.71140800
 H                -17.70503900    1.68767400   17.35841800
 H                -18.66188600    0.26433600   16.97292200
 H                -20.75241400    1.34645900   17.81254700
 H                -17.49369100    2.84763800   19.02369900
 H                -18.15559900    2.84261700   20.66585600
 H                -18.41873600    4.23040300   19.61428900
 H                -20.64232200    2.51149300   21.05181700
 H                -21.69529400    2.13032200   19.69153300
 H                -21.58899300    4.51783200   18.93683800
 H                -20.53526700    4.90767800   20.28872900
 H                -22.31230700    4.32111200   21.94467800
 H                -23.48955800    5.05162800   18.42042400
 H                -24.74528000    6.09447000   19.10611100
 H                -25.05887300    4.37804900   18.86861400
 H                -25.30300100    5.98322900   21.58123300
 H                -24.34217000    4.96353800   22.64910200
 H                -25.49225100    2.92756600   21.74099200
 H                -26.45346600    3.93821300   20.67218400
 H                -27.52808900    5.09415000   22.62155900
 H                -25.87444900    1.76037200   23.38604000
 H                -27.41075300    1.24454600   24.10086500
 H                -26.21191700    2.06211900   25.09830100
 H                -28.80932800    4.76545800   24.48904200
 H                -27.96616000    3.87586400   25.77465000
 H                -29.18167700    3.05637900   24.79706500


















