%chk=231-rad-PCM.chk
%nproc=8
%mem=30GB
#P UB3LYP/6-311++G(d,p) SCRF=(PCM,Solvent=n,n-DiMethylFormamide)

Radical PCM in DMF 

-1 2
C                  5.9103840000     -5.2109520000      1.0722550000
C                  6.7834000000     -5.0768970000      0.0077330000
C                  6.5531070000     -4.0900490000     -0.9692070000
C                  4.7867560000     -4.3711220000      1.1966590000
C                  4.5553060000     -3.3791100000      0.2146640000
C                  5.4543400000     -3.2566070000     -0.8623890000
C                  3.8845690000     -4.5525330000      2.3491450000
C                  2.7590930000     -3.6426270000      2.3897720000
C                  2.5323850000     -2.6707460000      1.4277830000
C                  3.3981670000     -2.4674650000      0.2852530000
O                  4.0913150000     -5.4296720000      3.2160240000
O                  3.1958960000     -1.5911260000     -0.5834920000
H                  6.0612130000     -5.9610780000      1.8398150000
H                  7.6454430000     -5.7320560000     -0.0744310000
H                  5.2506220000     -2.4876820000     -1.5984820000
Cl                 1.6687130000     -3.8378100000      3.7533860000
H                  7.2373520000     -3.9833310000     -1.8055810000
Cl                 1.1460900000     -1.5969380000      1.5353940000





