$molecule
-1 2
C                  1.0828610000      1.4257770000     -1.3132490000
C                 -0.1643360000      0.7087160000     -1.4049620000
C                 -0.4619750000     -0.4028650000     -0.6538060000
C                  0.4977100000     -0.9227440000      0.3102240000
C                  1.7653230000     -0.1986610000      0.4217950000
C                  2.0469630000      0.9109920000     -0.3450990000
C                  3.3592020000      1.6445210000     -0.2214870000
C                  2.7627600000     -0.7279750000      1.4232860000
O                  1.3167850000      2.4422410000     -2.0318010000
O                  0.2581230000     -1.9440540000      1.0172140000
H                 -0.8838930000      1.0988230000     -2.1208380000
H                  4.2120190000      0.9909510000     -0.4442190000
H                  3.5147430000      2.0288340000      0.7944970000
H                  3.3694880000      2.4834220000     -0.9182360000
H                  2.3461490000     -1.6044080000      1.9200620000
H                  3.0099660000      0.0236940000      2.1835270000
H                  3.7077690000     -1.0111600000      0.9426530000
C                 -1.7945760000     -1.0763350000     -0.8596210000
C                 -1.7469220000     -2.5720620000     -1.1600990000
O                 -2.6028500000     -0.8680230000      0.3683180000
C                 -3.9223850000     -0.7515750000      0.2540340000
C                 -4.5512770000     -0.4708590000      1.6039800000
O                 -4.5544830000     -0.8350580000     -0.7805710000
H                 -2.3296370000     -0.5617670000     -1.6588690000
H                 -2.7559800000     -2.9569730000     -1.3314110000
H                 -1.2683990000     -3.0982640000     -0.3355050000
H                 -1.1588280000     -2.7328050000     -2.0686590000
H                 -4.1050350000     -1.1026580000      2.3734150000
H                 -5.6273170000     -0.6306660000      1.5478120000
H                 -4.3549160000      0.5698410000      1.8770640000
$end

$rem
   BASIS  =  6-311++G(d,p)
   GUI  =  2
   JOB_TYPE  =  SP
   METHOD  =  B3LYP
   SCF_CONVERGENCE  = 8
   SOLVENT_METHOD = sm12
$end

$smx
   solvent dimethylformamide
   charges CM5
$end





