%chk=327-rad.chk
%nproc=8
%mem=30GB
#P UB3LYP/6-311++G(d,p) nosym opt freq Int=Acc2E=11

Radical

-3 2
C                 -1.68614200    2.94020200   -0.72232700
 C                 -2.82410800    2.22774200   -0.41094300
 C                 -2.71623500    0.88808000    0.00828700
 C                 -0.39966300    2.36578700   -0.63431400
 C                 -0.28255500    1.00328300   -0.20856000
 C                 -1.47062300    0.28576400    0.10810400
 C                  0.75829800    3.20983800   -0.98905100
 C                  2.10167400    2.58725600   -0.88995300
 C                  2.14827400    1.20756200   -0.45329100
 C                  1.05867400    0.44579800   -0.12992600
 O                  0.60670700    4.40508000   -1.35876200
 O                  3.15949000    3.22356000   -1.17103200
 H                 -1.74166300    3.97367100   -1.04779600
 H                 -3.80592200    2.68230600   -0.48357200
 S                 -4.28806100    0.03155000    0.39882600
 H                 -1.40292600   -0.74479100    0.43148200
 H                  3.13168200    0.75747600   -0.38235900
 S                  1.39448300   -1.28722900    0.39775800
 O                  2.88178400   -1.44402700    0.33812500
 O                  0.68701800   -2.15785500   -0.58540100
 O                  0.86178400   -1.40183800    1.78635600
 O                 -4.90980600    0.84252200    1.49486800
 O                 -3.94483700   -1.35469700    0.80935100
 O                 -5.09055400    0.09890000   -0.86494900










