$molecule
-2 1
C                  5.0229910000     -2.5449720000      0.1386800000
C                  5.7627670000     -1.5981510000     -0.5434290000
C                  5.0906870000     -0.5629320000     -1.2437550000
C                  3.6094130000     -2.5182820000      0.1635680000
C                  2.9243350000     -1.4679070000     -0.5462600000
C                  3.7118520000     -0.5112930000     -1.2369930000
C                  2.8956630000     -3.5543070000      0.9037000000
C                  1.4469790000     -3.4293410000      0.8612410000
C                  0.7683720000     -2.3511260000      0.1396750000
C                  1.4704790000     -1.3402560000     -0.5854320000
C                  0.6762110000     -4.3708980000      1.5518380000
C                 -0.6584850000     -2.3312650000      0.1790370000
C                 -1.4050640000     -3.2564330000      0.8578420000
O                  3.5022690000     -4.4775220000      1.5339740000
O                  0.8953680000     -0.3852880000     -1.2266570000
H                  5.5017680000     -3.3516060000      0.6850820000
H                 -2.4877620000     -3.2263230000      0.8621710000
H                  3.1669250000      0.2669520000     -1.7617930000
H                  1.2042100000     -5.1570560000      2.0798430000
H                 -1.1398730000     -1.5295260000     -0.3720370000
C                 -0.7170880000     -4.3139150000      1.5537080000
H                  5.6636630000      0.1881520000     -1.7850280000
H                  6.8499280000     -1.6444580000     -0.5447810000
S                 -1.6123430000     -5.4006080000      2.5674030000
O                 -0.8317930000     -6.6140800000      2.8927680000
O                 -3.0029630000     -5.5889400000      2.1066840000
N                 -1.8337590000     -4.5102500000      4.0633200000
H                 -0.9085230000     -4.3712240000      4.4656310000
H                 -2.3645860000     -5.1189920000      4.6888200000
$end

$rem
   BASIS  =  6-311++G(d,p)
   GUI  =  2
   JOB_TYPE  =  SP
   METHOD  =  B3LYP
   SCF_CONVERGENCE  = 8
   SOLVENT_METHOD = sm12
$end

$smx
   solvent dimethylformamide
   charges CM5
$end





