$molecule
-1 2
C                 -0.1443940000      1.8367570000      4.9936950000
C                  1.0542350000      1.2551940000      4.4195510000
C                  1.3987690000      1.2838500000      3.0910480000
C                  0.4863750000      1.9377600000      2.1442350000
C                 -0.7253960000      2.4964800000      2.7000260000
C                 -1.0427580000      2.4696340000      4.0366870000
O                 -0.3702950000      1.7761100000      6.2338830000
O                  0.7115640000      2.0135480000      0.8997290000
S                 -2.5093140000      3.3344620000      4.5929530000
C                 -3.3956000000      2.0562040000      5.6089670000
C                 -4.5441090000      2.7614240000      6.3307680000
C                 -3.8792880000      0.8843050000      4.7572830000
C                  2.7014400000      0.6530590000      2.5683130000
C                  3.5378810000      0.0124130000      3.6921580000
C                  3.5720610000      1.7401210000      1.8918660000
C                  2.3692310000     -0.4527740000      1.5368920000
H                  1.6958000000      0.7842530000      5.1552200000
H                 -1.3988250000      2.9578060000      1.9852060000
H                 -2.6526260000      1.7146300000      6.3304370000
H                 -4.1741120000      3.5640840000      6.9735780000
H                 -5.0897100000      2.0464080000      6.9568990000
H                 -5.2567410000      3.1938870000      5.6191280000
H                 -3.0482290000      0.4193520000      4.2230620000
H                 -4.6176580000      1.2121700000      4.0179040000
H                 -4.3431350000      0.1192000000      5.3935890000
H                  2.9943010000     -0.7911780000      4.1976380000
H                  3.8366770000      0.7457640000      4.4468480000
H                  4.4498580000     -0.4182020000      3.2644160000
H                  3.8445910000      2.5158880000      2.6150060000
H                  3.0285900000      2.2050040000      1.0697840000
H                  4.4982160000      1.2969680000      1.5045000000
H                  1.7806120000     -1.2482680000      2.0058530000
H                  3.2935620000     -0.8988850000      1.1485540000
H                  1.7975670000     -0.0387570000      0.7067650000
$end
$rem
   MAX_SCF_CYCLES=200
   BASIS  =  6-311++G(d,p)
   GUI  =  2
   JOB_TYPE  =  SP
   METHOD  =  B3LYP
   SOLVENT_METHOD = COSMO
$end
$solvent
   dielectric 37.219
   opticaldielectric 1.43
$end





