$molecule
-2 1
C                  4.7341800000      0.1560290000      0.9862550000
C                  3.9477820000     -0.6123910000     -0.0964270000
C                  4.6128890000     -0.4263970000     -1.4742580000
C                  2.4685340000     -0.2499700000     -0.1052420000
C                  2.0282210000      1.0450450000     -0.4971360000
C                  0.6792390000      1.3510470000     -0.5126180000
C                 -0.3234170000      0.4176460000     -0.1572320000
C                  0.1097140000     -0.8958160000      0.2249600000
C                  1.5047260000     -1.1742770000      0.2424930000
C                 -0.8104960000     -1.9566530000      0.6084870000
O                 -0.3890160000     -3.1055450000      0.9243490000
C                 -2.2612250000     -1.6410690000      0.6348500000
O                 -3.0865770000     -2.5306660000      0.9945370000
C                 -2.6901790000     -0.2974250000      0.2322710000
C                 -4.0905920000      0.0580980000      0.2144200000
C                 -5.1928770000     -0.9149930000      0.5839070000
C                 -4.4857740000      1.3326050000     -0.1584320000
C                 -3.5491360000      2.3226890000     -0.5309410000
C                 -2.2063620000      2.0055710000     -0.5252700000
C                 -1.7345700000      0.7258790000     -0.1562320000
H                  4.2956500000     -0.0121390000      1.9743980000
H                  4.7167780000      1.2350710000      0.7938370000
H                  5.7859120000     -0.1584600000      1.0170070000
H                  4.0073590000     -1.6783900000      0.1543120000
H                  4.0876450000     -1.0059640000     -2.2396750000
H                  5.6622030000     -0.7443470000     -1.4577230000
H                  4.5952070000      0.6229580000     -1.7861920000
H                  2.7490180000      1.8106940000     -0.7716020000
H                  0.3956830000      2.3534500000     -0.8167550000
H                  1.7817170000     -2.1807010000      0.5425400000
H                 -5.0826170000     -1.2839800000      1.6051550000
H                 -6.1674520000     -0.4174900000      0.4751430000
H                 -5.1683470000     -1.8095840000     -0.0409780000
H                 -5.5478170000      1.5712810000     -0.1639790000
H                 -3.8816580000      3.3167990000     -0.8196240000
H                 -1.4943450000      2.7713940000     -0.8120580000
$end

$rem
   BASIS  =  6-311++G(d,p)
   GUI  =  2
   JOB_TYPE  =  SP
   METHOD  =  B3LYP
   SCF_CONVERGENCE  = 8
   SOLVENT_METHOD = sm12
$end

$smx
   solvent dimethylformamide
   charges CM5
$end





