$molecule
0 1
C                  5.8759420000     -5.5595980000      0.8757520000
C                  6.3867960000     -5.5414630000     -0.4179570000
C                  5.9619310000     -4.5688480000     -1.3269290000
C                  4.9358730000     -4.6029220000      1.2663520000
C                  4.5101710000     -3.6273920000      0.3555860000
C                  5.0265400000     -3.6136790000     -0.9425260000
C                  4.3859570000     -4.6225250000      2.6498820000
C                  3.3750860000     -3.5915020000      3.0405640000
C                  2.9776110000     -2.6310670000      2.1680390000
C                  3.5107990000     -2.6021060000      0.7680550000
O                  4.7486000000     -5.4627850000      3.4597240000
O                  3.1301950000     -1.7496830000     -0.0206540000
H                  7.1161450000     -6.2840090000     -0.7212210000
C                  1.9675370000     -1.5582610000      2.4895510000
H                  6.3622110000     -4.5578690000     -2.3343820000
C                  2.8751480000     -3.7231180000      4.4517110000
C                  0.5200780000     -1.9791080000      2.1569020000
C                 -0.4971310000     -0.8694770000      2.4421700000
C                 -1.9410350000     -1.2689840000      2.1172150000
C                 -2.9539770000     -0.1564740000      2.4030710000
H                  6.1908270000     -6.3040380000      1.5965330000
H                  4.6840290000     -2.8507930000     -1.6306020000
H                  2.2128740000     -0.6709470000      1.9023010000
H                  2.0346400000     -1.2806160000      3.5437930000
H                  2.5050800000     -4.7367650000      4.6245680000
H                  2.0825800000     -3.0150220000      4.6814830000
H                  3.6964110000     -3.5794930000      5.1603500000
H                  0.2594020000     -2.8749340000      2.7331230000
H                  0.4667770000     -2.2607990000      1.1000910000
H                 -0.2292790000      0.0226240000      1.8621750000
H                 -0.4323060000     -0.5775470000      3.4987810000
H                 -2.2074610000     -2.1626170000      2.6947420000
H                 -2.0049260000     -1.5587470000      1.0615630000
H                 -2.9384150000      0.1316200000      3.4590300000
H                 -3.9724060000     -0.4721700000      2.1604820000
H                 -2.7346160000      0.7390520000      1.8132440000
$end

$rem
   BASIS  =  6-311++G(d,p)
   GUI  =  2
   JOB_TYPE  =  SP
   METHOD  =  B3LYP
   SCF_CONVERGENCE  = 8
   SOLVENT_METHOD = sm12
$end

$smx
   solvent dimethylformamide
   charges CM5
$end





