%chk=065-rad.chk
%nproc=8
%mem=30GB
#P UB3LYP/6-311++G(d,p) nosym  opt freq

Radical

-1 2
C         -1.41676       -2.11340        1.05960
C         -1.39476       -1.97066       -0.25685
C         -0.67432       -0.88940       -0.96982
C          0.02934        0.05705       -0.37174
C          0.01789       -0.08280        1.08822
C         -0.63716       -1.06804        1.76068
O         -1.97578       -2.95978        1.69886
O          0.64579        0.97034       -0.84165
C         -0.59487       -1.13697        3.28074
O          0.15730       -0.11759        3.83562
C          0.37513        0.07824        5.16181
C         -0.16152       -0.76885        6.15470
C          1.16591        1.16789        5.55083
C          1.42042        1.41350        6.90364
C          0.09580       -0.51923        7.50660
C          0.88576        0.57053        7.88085
H         -1.93846       -2.68974       -0.86275
H         -0.73281       -0.88046       -2.05419
H          0.57887        0.66532        1.64069
H         -0.15575       -2.11529        3.57516
H         -1.63671       -1.07067        3.66386
H         -0.77632       -1.61960        5.89385
H          1.58494        1.82719        4.80092
H          2.03238        2.25768        7.19410
H         -0.31784       -1.17160        8.26485
H          1.08346        0.76163        8.92769










