$molecule
0 1
C                  2.9064240000      2.5203060000     -0.3617340000
O                  2.5440130000      1.1511030000     -0.2392320000
C                  1.2388050000      0.8123170000     -0.1632530000
C                  0.2170920000      1.7673700000     -0.1917370000
C                 -1.1135770000      1.3941090000     -0.1176010000
C                 -1.4825980000      0.0489260000     -0.0118490000
O                 -2.7739820000     -0.3406100000      0.0570870000
C                 -3.8041890000      0.6380760000      0.0144990000
C                 -0.4711600000     -0.9420990000      0.0200750000
C                 -0.8369580000     -2.3914790000      0.1283760000
O                 -1.9808040000     -2.7995330000      0.2517110000
C                  0.2628690000     -3.3807160000      0.0837050000
C                  1.5458830000     -3.0207300000      0.0134990000
C                  1.9708560000     -1.6036710000     -0.0253970000
O                  3.1660450000     -1.3554020000     -0.0292920000
C                  0.8975440000     -0.5581430000     -0.0556460000
H                  3.9936600000      2.5257290000     -0.4092960000
H                  2.5792870000      3.1026960000      0.5063690000
H                  2.5013120000      2.9640820000     -1.2776480000
H                  0.4553400000      2.8184750000     -0.2728090000
H                 -1.8692170000      2.1664390000     -0.1433080000
H                 -4.7347180000      0.0775530000      0.0801670000
H                 -3.7378940000      1.3297120000      0.8613030000
H                 -3.7860760000      1.2017650000     -0.9245720000
H                 -0.0543060000     -4.4168640000      0.1301870000
H                  2.3573510000     -3.7402130000     -0.0017270000
$end

$rem
   BASIS  =  6-311++G(d,p)
   GUI  =  2
   JOB_TYPE  =  SP
   METHOD  =  B3LYP
   SCF_CONVERGENCE  = 8
   SOLVENT_METHOD = sm12
$end

$smx
   solvent dimethylformamide
   charges CM5
$end





