$molecule
0 1
C                  4.9029970000     -2.8623300000     -0.3630670000
C                  5.6242480000     -1.9593240000     -1.1344150000
C                  5.0332520000     -0.7631140000     -1.5522490000
C                  3.5821630000     -2.5776760000     -0.0015730000
C                  2.9874270000     -1.3738800000     -0.4220410000
C                  3.7217120000     -0.4713050000     -1.1982320000
C                  2.8258940000     -3.5522360000      0.8221110000
C                  1.4474290000     -3.2304490000      1.1860720000
C                  0.8433200000     -2.0076170000      0.7590090000
C                  1.5884370000     -1.0473370000     -0.0526500000
C                  0.7096640000     -4.1371010000      1.9658330000
C                 -0.6241450000     -3.8250770000      2.3177490000
C                 -0.4835350000     -1.7216860000      1.1223230000
C                 -1.2040090000     -2.6512800000      1.9078190000
O                  3.3609220000     -4.6119130000      1.1879220000
O                  1.0732700000      0.0183050000     -0.4294500000
O                  1.2072560000     -5.2999230000      2.4018010000
H                  5.3415860000     -3.7941920000     -0.0291290000
H                  6.6476550000     -2.1836850000     -1.4124840000
H                  5.5989310000     -0.0609540000     -2.1539160000
H                  3.2452170000      0.4491570000     -1.5111740000
H                  2.1378360000     -5.3571370000      2.0691330000
O                 -1.1148320000     -0.5990540000      0.7603470000
H                 -2.2252320000     -2.4069470000      2.1743360000
H                 -1.1710960000     -4.5408630000      2.9195170000
H                 -0.4740780000     -0.0693730000      0.2229680000
$end
$rem
   MAX_SCF_CYCLES=200
   BASIS  =  6-311++G(d,p)
   GUI  =  2
   JOB_TYPE  =  SP
   METHOD  =  B3LYP
   SOLVENT_METHOD = PCM
$end
$pcm
   theory = CPCM
$end
$solvent
   dielectric 37.219
   opticaldielectric 1.43
$end






