%chk=345-rad.chk
%nproc=8
%mem=30GB
#P UB3LYP/6-311++G(d,p) nosym  opt freq

Radical

-1 2
O                  1.9790880000     -3.0746810000      0.8565720000
C                  1.4692790000     -1.9572620000      0.5853430000
C                  0.0802760000     -1.6883200000      0.4938290000
C                 -0.4629890000     -0.4408790000      0.1913880000
O                  0.3985180000      0.6367420000     -0.0422020000
C                  1.7484600000      0.4672040000      0.0253800000
C                  2.5363300000      1.5947200000     -0.2212760000
C                  3.9278090000      1.4884010000     -0.1676290000
C                  4.5273620000      0.2639510000      0.1303800000
C                  3.7301440000     -0.8545390000      0.3747800000
C                  2.3329170000     -0.7736300000      0.3270070000
C                 -1.8420010000     -0.0880690000      0.0800170000
C                 -2.8864850000     -1.0426590000      0.2819370000
C                 -4.2194840000     -0.6896500000      0.1710470000
C                 -4.6049140000      0.6238730000     -0.1451540000
C                 -3.5945880000      1.5766740000     -0.3472250000
C                 -2.2548170000      1.2414520000     -0.2403130000
H                 -0.5906270000     -2.5181130000      0.6733990000
H                  2.0477870000      2.5348450000     -0.4506840000
H                  4.5382230000      2.3653470000     -0.3595070000
H                  5.6090000000      0.1828970000      0.1716530000
H                  4.1571430000     -1.8229110000      0.6094840000
H                 -2.6346340000     -2.0670490000      0.5275340000
H                 -4.9796700000     -1.4491870000      0.3332010000
H                 -5.6519800000      0.8927590000     -0.2303180000
H                 -3.8626560000      2.6009410000     -0.5930800000
H                 -1.4974900000      1.9971430000     -0.4016160000


