$molecule
-2 1
N                  3.5689980000     -1.2731360000      0.1794480000
C                  2.8734700000     -0.0750900000     -0.0634140000
C                  3.5709850000      1.0962260000     -0.3306590000
C                  2.8801310000      2.3248670000     -0.5056500000
C                  1.5106320000      2.3680390000     -0.4024270000
C                  0.7464550000      1.1923590000     -0.1459980000
C                 -0.6859860000      1.3175880000     -0.0801630000
O                 -1.2606510000      2.4827610000     -0.2427330000
C                 -1.4215200000      0.0984470000      0.1462620000
C                 -2.8641390000      0.0963340000      0.2318540000
N                 -3.5455630000      1.3266360000      0.2447210000
C                 -3.5704590000     -1.0950210000      0.3399570000
C                 -2.8859260000     -2.3380990000      0.4006150000
C                 -1.5128550000     -2.3731250000      0.3621630000
C                 -0.7414810000     -1.1811330000      0.2353100000
C                  0.6912230000     -1.3057440000      0.1743610000
O                  1.2607970000     -2.4826220000      0.2440970000
C                  1.4302460000     -0.0786210000      0.0111350000
H                  2.8878790000     -2.0605290000      0.1632260000
H                  4.3823800000     -1.3848800000     -0.4114530000
H                  4.6597640000      1.0654670000     -0.3569590000
H                  3.4461040000      3.2336760000     -0.7079870000
H                  0.9552060000      3.2916480000     -0.5183050000
H                 -4.4197720000      1.2997400000     -0.2635120000
H                 -2.8811820000      2.0761560000     -0.0399430000
H                 -4.6559800000     -1.0568490000      0.4251330000
H                 -3.4580320000     -3.2608880000      0.4920100000
H                 -0.9607260000     -3.3042090000      0.4189160000
$end

$rem
   BASIS  =  6-311++G(d,p)
   GUI  =  2
   JOB_TYPE  =  SP
   METHOD  =  B3LYP
   SCF_CONVERGENCE  = 8
   SOLVENT_METHOD = sm12
$end

$smx
   solvent dimethylformamide
   charges CM5
$end





