$molecule
-1 2
O                  4.5658040000     -1.3935810000     -0.8858290000
C                  3.4251030000     -0.6663710000     -0.5528020000
C                  3.4955780000      0.6734950000     -0.1761680000
C                  2.3286640000      1.3556530000      0.1452870000
O                  2.4174180000      2.6463670000      0.5087840000
C                  1.0680250000      0.6852820000      0.0787650000
C                 -0.1264180000      1.4424780000      0.4197560000
O                 -0.0204820000      2.6675520000      0.7629540000
C                 -1.4139240000      0.7720550000      0.3587710000
C                 -2.6327900000      1.4336000000      0.6735340000
O                 -2.6300020000      2.7574780000      1.0530740000
C                 -3.8374390000      0.7505810000      0.6011130000
C                 -3.8965110000     -0.5943600000      0.2206220000
C                 -2.7328400000     -1.2798640000     -0.0960590000
O                 -2.8213240000     -2.5746750000     -0.4594920000
C                 -1.4701190000     -0.6087640000     -0.0320200000
C                 -0.2743420000     -1.3652190000     -0.3739220000
O                 -0.3723570000     -2.5905810000     -0.7177660000
C                  1.0136600000     -0.6937670000     -0.3135530000
C                  2.2254850000     -1.3639110000     -0.6262050000
O                  2.2656630000     -2.6836760000     -0.9970820000
H                  5.3411520000     -0.9008090000     -0.6035780000
H                  4.4437450000      1.2004510000     -0.1371460000
H                  1.4426870000      2.9139800000      0.6838560000
H                 -3.5466650000      3.0039230000      1.2155220000
H                 -4.7573270000      1.2778550000      0.8469660000
H                 -4.8423970000     -1.1205750000      0.1663540000
H                 -1.8555420000     -2.8455220000     -0.6379680000
H                  3.1994990000     -2.9052740000     -1.1041690000
$end
$rem
   MAX_SCF_CYCLES=200
   BASIS  =  6-311++G(d,p)
   GUI  =  2
   JOB_TYPE  =  SP
   METHOD  =  B3LYP
   SOLVENT_METHOD = PCM
$end
$pcm
   theory = CPCM
$end
$solvent
   dielectric 37.219
   opticaldielectric 1.43
$end






