%chk=164-an-new.chk
%nproc=8
%mem=30GB
#P UB3LYP/6-311++G(d,p) nosym opt freq SCF=YQC

Reduced

-5 1
 N                  3.10417300   -1.72273100   -2.67134200
 C                  2.54806500   -0.51857700   -2.31199100
 C                  1.57247300   -0.26375900   -1.31325800
 C                  3.05785300    0.61116500   -3.01103700
 C                  1.15231000    1.04634700   -1.04153200
 C                  2.60646700    1.88974200   -2.75990000
 C                  1.63865400    2.14153500   -1.78391800
 S                  1.11177900    3.86282700   -1.51694000
 O                 -0.36610700    3.76533500   -1.24747100
 O                  1.87069600    4.37919500   -0.34585100
 O                  1.42611100    4.57912000   -2.78440700
 N                  0.15360100    1.33664300   -0.05747500
 C                  0.07292600    0.95415400    1.22167700
 N                  0.94250000    0.03898500    1.72538600
 C                  0.75659700   -0.21850700    2.99140200
 N                 -0.13236600    0.27135900    3.83087500
 C                 -0.95406800    1.18345400    3.23226500
 N                 -0.90797000    1.54645000    1.96549900
 Cl                 1.88641600   -1.39373200    3.70916500
 N                 -1.87326700    1.70907800    4.11365100
 C                 -2.81934900    2.74396800    4.01537100
 C                 -3.03619600    3.50057100    2.85827300
 C                 -3.56920800    3.02769400    5.17622200
 C                 -3.99718500    4.51389700    2.88305300
 C                 -4.51626400    4.04160100    5.18054000
 C                 -4.74078000    4.79472500    4.02504900
 S                 -5.45049600    4.43301700    6.70910300
 O                 -5.13782500    3.32495600    7.65425900
 O                 -4.93254500    5.75913900    7.15319000
 O                 -6.87980500    4.48098600    6.28712800
 H                  4.01456400   -1.66105100   -3.17498900
 H                  1.16650200   -1.07217800   -0.72348200
 H                  3.80360900    0.43947500   -3.78022700
 H                  2.98106300    2.72815800   -3.33506600
 H                 -0.40117300    2.17129600   -0.29238900
 H                 -1.77452900    1.29735200    5.02978400
 H                 -2.45944900    3.29642100    1.96808600
 H                 -3.42333600    2.45447800    6.08595600
 H                 -4.15683800    5.09382400    1.97917000
 H                 -5.48880600    5.57830300    4.02988000
 C                  2.73615000   -3.07692600   -2.59504400
 C                  3.71626700   -4.04995700   -3.03582900
 C                  1.47266800   -3.50161800   -2.19783800
 C                  1.11595500   -4.85405700   -2.19297100
 C                  3.37849400   -5.46120800   -2.95604900
 C                  2.04920600   -5.85192400   -2.54096500
 C                  4.36124000   -6.49008100   -3.28293800
 C                  5.65049800   -6.04478800   -3.79000400
 C                  5.95398500   -4.65826000   -3.93449500
 C                  4.99883100   -3.62894300   -3.58020100
 C                  6.62183600   -6.99806700   -4.17958200
 C                  7.85977300   -6.62498700   -4.67013300
 C                  8.17182700   -5.24677100   -4.78712300
 C                  7.23607400   -4.29756800   -4.42432800
 O                  4.14437700   -7.74903600   -3.16166200
 O                  5.32067700   -2.38970400   -3.75867100
 N                  1.69239300   -7.17475100   -2.51910100
 H                  0.71426700   -2.78669700   -1.91085700
 H                  6.35087000   -8.04283600   -4.07711200
 H                  8.59227500   -7.37541200   -4.97042300
 H                  9.14671100   -4.94598200   -5.17050100
 H                  7.44968800   -3.23794200   -4.50599900
 H                  2.48048100   -7.81111400   -2.63605000
 H                  0.87818500   -7.39809800   -1.95677600
 S                 -0.62789200   -5.27103500   -1.82416200
 O                 -0.58078100   -6.51424600   -0.97591100
 O                 -1.29067900   -5.52583400   -3.13780300
 O                 -1.18289000   -4.09563100   -1.10335600




































































