%chk=150-rad.chk
%nproc=8
%mem=30GB
#P UB3LYP/6-311++G(d,p) nosym  opt freq

Radical

-1 2
N                 -2.9216980000      1.8810010000      0.1107010000
C                 -2.5292320000      0.5532030000      0.0698330000
C                 -3.4932560000     -0.4570550000      0.0412610000
C                 -3.1226860000     -1.8044550000     -0.0694190000
C                 -1.7915630000     -2.1604430000     -0.1575880000
C                 -0.7843620000     -1.1744990000     -0.1165840000
C                  0.6107200000     -1.6202470000     -0.1975880000
O                  0.9128360000     -2.8335020000     -0.3239440000
C                  1.6336910000     -0.5802680000     -0.1189670000
C                  2.9981190000     -0.9386210000     -0.1915340000
C                  3.9926960000      0.0151150000     -0.1121510000
C                  3.6502130000      1.3767230000      0.0457160000
C                  2.3227370000      1.7488020000      0.1200260000
C                  1.2880640000      0.7900930000      0.0386690000
C                 -0.1029280000      1.2345520000      0.1186210000
O                 -0.3629250000      2.4673840000      0.2849000000
C                 -1.1341150000      0.2091780000      0.0118740000
H                 -3.8245300000      2.0659140000      0.5188580000
H                 -2.1540140000      2.5225320000      0.3189840000
H                 -4.5433250000     -0.1794920000      0.0861350000
H                 -3.8947790000     -2.5685690000     -0.0927620000
H                 -1.4789650000     -3.1924340000     -0.2533000000
H                  3.2291020000     -1.9909840000     -0.3104780000
H                  5.0367670000     -0.2786600000     -0.1704210000
H                  4.4311490000      2.1290230000      0.1080020000
H                  2.0322850000      2.7857090000      0.2411560000


