%chk=200-an.chk
%nproc=8
%mem=30GB
#P UB3LYP/6-311++G(d,p) nosym opt freq

Reduced

-2 1
O                  4.4066010000     -1.5259920000     -0.3977290000
C                  3.2750820000     -0.7253290000     -0.3104520000
C                  3.3531330000      0.6736110000     -0.3738930000
C                  2.2004770000      1.4402050000     -0.2764150000
O                  2.3376510000      2.8297040000     -0.3263640000
C                  0.9143470000      0.8432600000     -0.1281690000
C                 -0.3143590000      1.6394910000     -0.0280840000
O                 -0.3405870000      2.9034300000     -0.0786510000
C                 -1.5537720000      0.8757960000      0.1335230000
C                 -2.7753520000      1.5670990000      0.2467660000
C                 -3.9895580000      0.9189610000      0.3981170000
C                 -4.0082330000     -0.5047160000      0.4434140000
C                 -2.8424800000     -1.2225660000      0.3385420000
C                 -1.5714980000     -0.5727000000      0.1794970000
C                 -0.3800090000     -1.2870370000      0.0742280000
O                 -0.4242070000     -2.6724200000      0.1210490000
C                  0.8597490000     -0.6145510000     -0.0780740000
C                  2.0685850000     -1.4006870000     -0.1721320000
O                  2.1079760000     -2.7311280000     -0.1315930000
H                  3.9827620000     -2.4127760000     -0.3278140000
H                  4.3232850000      1.1525290000     -0.5050430000
H                  3.3020360000      2.9894180000     -0.2275120000
H                 -2.7165020000      2.6507020000      0.2039710000
H                 -4.9154220000      1.4844170000      0.4825900000
H                 -4.9559640000     -1.0298020000      0.5628940000
H                 -2.8529170000     -2.3065750000      0.3721190000
H                  0.5355780000     -2.9557400000      0.0332130000














