%chk=181-rad-PCM.chk
%nproc=8
%mem=30GB
#P UB3LYP/6-311++G(d,p) SCRF=(PCM,Solvent=n,n-DiMethylFormamide)

Radical PCM in DMF 

-1 2
N                 -2.5876590000     -2.2688730000      0.5753590000
C                 -2.3435880000     -0.9443010000      0.2151730000
C                 -3.4185680000     -0.0912270000     -0.0060410000
C                 -3.2152260000      1.2607720000     -0.2995690000
C                 -1.9399280000      1.7983520000     -0.3623800000
O                 -1.7958990000      3.1413820000     -0.6398770000
C                 -0.7978250000      0.9772960000     -0.1546270000
C                  0.5557400000      1.5463690000     -0.2254980000
O                  0.7880020000      2.7595360000     -0.4151170000
C                  1.6745910000      0.6057000000     -0.0609810000
C                  2.9949250000      1.0974390000     -0.1347770000
C                  4.0801650000      0.2543550000      0.0037030000
C                  3.8734020000     -1.1249230000      0.2237810000
C                  2.5893270000     -1.6252010000      0.2996370000
C                  1.4669880000     -0.7764190000      0.1612320000
C                  0.1263160000     -1.3428350000      0.2548180000
O                 -0.0050660000     -2.5956320000      0.4388780000
C                 -1.0045040000     -0.4314600000      0.1171080000
H                 -3.4406000000     -2.6588770000      0.2031730000
H                 -1.7468710000     -2.8474940000      0.5100110000
H                 -4.4296390000     -0.4810810000      0.0717020000
H                 -4.0734290000      1.9084800000     -0.4697020000
H                 -2.6843490000      3.4975740000     -0.7466860000
H                  3.1190320000      2.1603620000     -0.3058010000
H                  5.0900280000      0.6496950000     -0.0563620000
H                  4.7247050000     -1.7906020000      0.3339430000
H                  2.3999300000     -2.6783880000      0.4689000000





