$molecule
-2 1
C                  2.6431500000      1.4343070000     -0.2136500000
O                  2.4758130000      0.2273130000      0.5132640000
C                  1.2216400000     -0.3835270000      0.3340480000
C                  1.2337650000     -1.7096070000     -0.0930390000
C                  0.0434440000     -2.4949140000     -0.2445970000
O                  0.0490270000     -3.7283370000     -0.6407860000
C                 -1.1553460000     -1.7708270000      0.0638410000
C                 -1.1551230000     -0.4444060000      0.4900970000
O                 -2.4047380000      0.1021330000      0.8337980000
C                 -2.7270770000      1.2968280000      0.1395190000
C                  0.0320650000      0.3432620000      0.6894980000
O                  0.0317230000      1.5576350000      1.1580390000
H                  3.6335430000      1.8310000000      0.0466500000
H                  2.6176750000      1.2429390000     -1.3009510000
H                  1.8616210000      2.1513230000      0.0551520000
H                  2.1914960000     -2.1728400000     -0.3202060000
H                 -2.1096860000     -2.2830480000     -0.0376610000
H                 -2.8353410000      1.1035810000     -0.9423180000
H                 -3.6933240000      1.6437860000      0.5294270000
H                 -1.9543260000      2.0533980000      0.3057750000
$end
$rem
   MAX_SCF_CYCLES=200
   BASIS  =  6-311++G(d,p)
   GUI  =  2
   JOB_TYPE  =  SP
   METHOD  =  B3LYP
   SOLVENT_METHOD = PCM
$end
$pcm
   theory = CPCM
$end
$solvent
   dielectric 37.219
   opticaldielectric 1.43
$end





