%chk=136-an-PCM.chk
%nproc=8
%mem=30GB
#P UB3LYP/6-311++G(d,p) SCRF=(PCM,Solvent=n,n-DiMethylFormamide)

Reduced 

-2 1
O                 -0.0509080000     -1.5602180000     -2.3937620000
C                 -0.0275170000     -0.8456580000     -1.3298680000
C                  1.2062980000     -0.4614150000     -0.6723400000
C                  2.4280500000     -0.8836960000     -1.2144810000
C                  3.6652980000     -0.5625890000     -0.6510710000
C                  4.9116990000     -0.9912530000     -1.2015410000
C                  6.1131980000     -0.6599110000     -0.6255140000
C                  6.1392510000      0.1403470000      0.5660080000
C                  4.9629080000      0.5726880000      1.1265320000
C                  3.6917540000      0.2509630000      0.5595490000
C                  2.4789830000      0.6759960000      1.1067750000
C                  1.2328740000      0.3584590000      0.5483190000
C                  0.0276040000      0.8461110000      1.1895200000
O                  0.0507270000      1.5605250000      2.2538300000
C                 -1.2061640000      0.4616150000      0.5322250000
C                 -2.4281460000      0.8832270000      1.0748890000
C                 -3.6652500000      0.5622070000      0.5113630000
C                 -4.9119540000      0.9906480000      1.0618960000
C                 -6.1131620000      0.6593650000      0.4855310000
C                 -6.1392500000     -0.1407180000     -0.7061430000
C                 -4.9626300000     -0.5724070000     -1.2668360000
C                 -3.6918010000     -0.2503750000     -0.6997060000
C                 -2.4787980000     -0.6750480000     -1.2472570000
C                 -1.2330690000     -0.3578400000     -0.6884190000
H                  2.3768940000     -1.4878790000     -2.1161130000
H                  4.8884940000     -1.5977750000     -2.1045640000
H                  7.0464610000     -1.0006950000     -1.0665510000
H                  7.0922070000      0.4011070000      1.0194370000
H                  4.9794210000      1.1794840000      2.0295150000
H                  2.4671530000      1.2828050000      2.0080180000
H                 -2.3769000000      1.4871050000      1.9767000000
H                 -4.8889130000      1.5967520000      1.9651820000
H                 -7.0466130000      0.9993160000      0.9269100000
H                 -7.0921900000     -0.4009360000     -1.1598410000
H                 -4.9789490000     -1.1787620000     -2.1701040000
H                 -2.4670620000     -1.2815450000     -2.1486880000





