%chk=283-an.chk
%nproc=8
%mem=30GB
#P UB3LYP/6-311++G(d,p) nosym opt freq

Reduced

-2 1
C                 -1.9488250000      3.0533510000      0.1655620000
C                 -2.8894830000      2.2562140000      0.7872290000
C                 -2.5836350000      0.9047420000      1.0927160000
C                 -0.6648070000      2.5576600000     -0.1834440000
C                 -0.3518240000      1.1797500000      0.1282380000
C                 -1.3356420000      0.3978330000      0.7624950000
C                  0.2992430000      3.3934790000     -0.8287630000
C                  1.5510760000      2.7781350000     -1.1289110000
C                  1.8924450000      1.4551890000     -0.8512970000
C                  0.9489650000      0.5867000000     -0.1986010000
O                  0.1359330000      4.6429690000     -1.1665900000
O                  1.2206560000     -0.6329370000      0.0749080000
H                 -2.1619930000      4.0897620000     -0.0777170000
H                 -3.8658570000      2.6641400000      1.0435800000
H                 -3.3215600000      0.2739240000      1.5837200000
H                 -1.0694070000     -0.6314480000      0.9831930000
C                  3.2423710000      0.9012560000     -1.2342370000
O                  2.4296520000      3.6362630000     -1.7552430000
H                  3.6339750000      1.4478260000     -2.1003420000
H                  3.1079210000     -0.1491960000     -1.5181400000
H                  1.8639240000      4.4479340000     -1.7937950000
C                  4.2867300000      0.9564530000     -0.1001700000
C                  5.6461460000      0.3607900000     -0.4957530000
C                  6.7026740000      0.4101020000      0.6152680000
C                  8.0589820000     -0.1842060000      0.2156550000
H                  3.8832860000      0.4148910000      0.7623560000
H                  4.4221200000      2.0003230000      0.2095210000
H                  6.0312850000      0.8910110000     -1.3786470000
H                  5.5029450000     -0.6831580000     -0.8073650000
H                  6.3195510000     -0.1210490000      1.4960320000
H                  6.8434860000      1.4524810000      0.9301120000
H                  7.9642790000     -1.2380370000     -0.0714710000
H                  8.7913030000     -0.1364550000      1.0301750000
H                  8.4928130000      0.3485690000     -0.6388320000


