%chk=224-an.chk
%nproc=8
%mem=30GB
#P UB3LYP/6-311++G(d,p) nosym opt freq

Reduced

-4 1
C                  5.58646500   -4.79693800    0.79830300
 C                  6.63600300   -4.66212700   -0.08735100
 C                  6.59690000   -3.62667500   -1.03927600
 C                  4.47885300   -3.92777700    0.76207700
 C                  4.40310900   -2.90443000   -0.23950300
 C                  5.51845600   -2.75728000   -1.13589400
 C                  3.43539000   -4.17228200    1.80319300
 C                  2.27448200   -3.26915800    1.83392600
 C                  2.16198200   -2.29730700    0.78562800
 C                  3.17940100   -2.08925300   -0.28866900
 C                  1.23803800   -3.30581700    2.83070400
 C                  0.15135200   -2.44799200    2.72383600
 C                  0.02416100   -1.53599500    1.65990800
 C                  1.02556300   -1.46855300    0.71292700
 O                  3.56723600   -5.12192200    2.59277000
 O                  2.96345200   -1.25732700   -1.18527200
 S                  1.14514800   -4.38900900    4.36757100
 O                 -0.06985300   -3.86698100    5.08822800
 O                  2.38054000   -4.14524900    5.15841000
 O                  0.93179600   -5.79090900    3.91595100
 S                  5.76079300   -1.46510600   -2.48333700
 O                  7.16426900   -1.72324600   -2.96472500
 O                  4.77141700   -1.74764800   -3.55853900
 O                  5.65422700   -0.12807300   -1.84143800
 H                  5.57775700   -5.56601400    1.56059800
 H                  7.48912300   -5.34511900   -0.05375800
 H                  7.42109600   -3.48286600   -1.72452400
 H                 -0.60571600   -2.49772200    3.49451800
 H                 -0.85635600   -0.89143600    1.59151800
 H                  0.98321400   -0.77085900   -0.11416000









