%chk=067-rad.chk
%nproc=8
%mem=30GB
#P UB3LYP/6-311++G(d,p) nosym  opt freq SCRF=(PCM,Solvent=n,n-DiMethylFormamide)

Radical

-1 2
C                 -0.6156720000     -1.1101680000      2.5266720000
C                 -0.5011600000     -1.8887880000      1.3051020000
C                  0.0966980000     -1.4093140000      0.1826650000
C                  0.6837340000     -0.0857150000      0.1155330000
C                  0.5830340000      0.7267090000      1.3234380000
C                 -0.0950290000      0.2502380000      2.4325240000
O                 -1.0993990000     -1.5939520000      3.5755020000
O                  1.2519930000      0.3424640000     -0.9251330000
S                 -0.4030510000      1.3319240000      3.8383590000
C                  0.6572950000      0.7126300000      5.1689700000
C                  0.1541210000     -0.2284190000      6.0633880000
C                  1.9591140000      1.1992330000      5.2686730000
C                  2.7731340000      0.7337030000      6.2996140000
C                  0.9779190000     -0.6820170000      7.0920110000
C                  2.2824670000     -0.2016660000      7.2115130000
O                  0.1104940000      2.6691120000      3.4788940000
O                 -1.7973770000      1.2238080000      4.2846260000
H                 -0.9129970000     -2.8925040000      1.3469500000
H                  0.1760700000     -2.0111020000     -0.7179040000
H                 -0.8520060000     -0.6013250000      5.9269840000
H                  2.3194120000      1.9213090000      4.5458880000
H                  3.7893810000      1.1019800000      6.3888920000
H                  0.6016510000     -1.4163510000      7.7961140000
H                  2.9202140000     -0.5617420000      8.0123780000
C                  1.3489060000      2.0388900000      1.2421700000
C                  0.7028410000      3.1599990000      0.4668700000
O                  2.4719980000      2.1114660000      1.6950910000
H                 -0.2716460000      3.3949550000      0.8997900000
H                  0.5606960000      2.8204150000     -0.5630920000
H                  1.3457590000      4.0411490000      0.4883420000


