%chk=213-rad-PCM.chk
%nproc=8
%mem=30GB
#P UB3LYP/6-311++G(d,p) SCRF=(PCM,Solvent=n,n-DiMethylFormamide)

Radical PCM in DMF 

-1 2
O                  3.3906070000      2.7157570000      0.9626380000
C                  3.0429620000      1.5390320000      0.6935460000
C                  4.0212410000      0.4664940000      0.4916640000
C                  5.3977110000      0.7587410000      0.6031560000
C                  6.3562300000     -0.2184510000      0.4200320000
C                  5.9612490000     -1.5404660000      0.1145670000
C                  4.6212800000     -1.8508950000      0.0003800000
C                  3.6213060000     -0.8683070000      0.1832800000
C                  2.2152260000     -1.2474440000      0.0535750000
O                  1.8623980000     -2.4262350000     -0.2177590000
C                  1.2391150000     -0.1764350000      0.2584210000
C                 -0.1352650000     -0.4799900000      0.1346450000
C                 -1.1202970000      0.4803820000      0.3224330000
C                 -0.7080610000      1.8103690000      0.6239860000
C                  0.6287360000      2.1226630000      0.7357210000
C                  1.6387200000      1.1538970000      0.5614140000
N                 -2.5063310000      0.1918420000      0.2487170000
C                 -2.9237890000     -1.1913470000      0.0633520000
C                 -4.3480690000     -1.4168420000      0.6087140000
C                 -5.2754440000     -0.2083310000      0.3440700000
C                 -4.7215590000      0.6323560000     -0.8071140000
C                 -3.3392980000      1.1907490000     -0.4432310000
H                  5.6699110000      1.7815530000      0.8381070000
H                  7.4105330000      0.0265100000      0.5100590000
H                  6.7131570000     -2.3110650000     -0.0299590000
H                  4.2912820000     -2.8568210000     -0.2328160000
H                 -0.3662280000     -1.5039680000     -0.1252290000
H                 -1.4494340000      2.5831510000      0.7891570000
H                  0.9430530000      3.1329810000      0.9727270000
H                 -2.8632910000     -1.5030770000     -0.9945880000
H                 -2.2320340000     -1.8321890000      0.6075160000
H                 -4.2963410000     -1.6132500000      1.6834920000
H                 -4.7551280000     -2.3205660000      0.1408550000
H                 -6.2956310000     -0.5423960000      0.1288260000
H                 -5.3337830000      0.4196720000      1.2398290000
H                 -4.6572140000      0.0187420000     -1.7127220000
H                 -5.3868180000      1.4687790000     -1.0446050000
H                 -3.4787010000      2.0580690000      0.2124910000
H                 -2.8319970000      1.5563340000     -1.3494580000





