$molecule
-3 2
C                  5.6384270000     -4.7109490000      0.8788730000
C                  6.6568300000     -4.6022080000     -0.0397470000
C                  6.5826620000     -3.6288670000     -1.0539250000
C                  4.5155590000     -3.8604560000      0.8229150000
C                  4.4238710000     -2.8613490000     -0.2054510000
C                  5.5035180000     -2.7674300000     -1.1562550000
C                  3.4950270000     -4.0920130000      1.8780310000
C                  2.3081490000     -3.2361640000      1.8690020000
C                  2.2163270000     -2.2372400000      0.8404670000
C                  3.2364280000     -2.0062880000     -0.2151980000
C                  1.2290780000     -3.3292650000      2.8205420000
C                  0.1501840000     -2.4674780000      2.7185260000
C                  0.0757410000     -1.4945230000      1.7040000000
C                  1.0937000000     -1.3864100000      0.7848130000
O                  3.6767030000     -4.9911920000      2.7248550000
O                  3.0545620000     -1.1073810000     -1.0622700000
S                  1.0476750000     -4.5146160000      4.2718610000
O                 -0.2746130000     -4.1155730000      4.8747830000
O                  2.1656790000     -4.2385090000      5.2104290000
O                  0.9849000000     -5.8901340000      3.7140780000
S                  5.6855700000     -1.5811160000     -2.6067080000
O                  7.0087650000     -1.9788340000     -3.2085160000
O                  4.5687470000     -1.8574800000     -3.5466160000
O                  5.7467510000     -0.2058850000     -2.0480620000
H                  5.6514160000     -5.4446280000      1.6767140000
H                  7.5211640000     -5.2629310000      0.0100960000
H                  7.3734030000     -3.5280560000     -1.7855730000
H                 -0.6400740000     -2.5676080000      3.4507910000
H                 -0.7883840000     -0.8335070000      1.6544230000
H                  1.0805350000     -0.6529820000     -0.0132550000
$end
$rem
   MAX_SCF_CYCLES=200
   BASIS  =  6-311++G(d,p)
   GUI  =  2
   JOB_TYPE  =  SP
   METHOD  =  B3LYP
   SOLVENT_METHOD = PCM
$end
$pcm
   theory = CPCM
$end
$solvent
   dielectric 37.219
   opticaldielectric 1.43
$end
