%chk=131.chk
%nproc=8
%mem=30GB
#P UB3LYP/6-311++G(d,p) nosym opt freq SCRF=(PCM,Solvent=n,n-DiMethylFormamide)

Oxidized

0 1
C                 -4.8460340000      1.1023190000     -1.5939640000
C                 -3.6237720000      0.5778590000     -0.8860510000
C                 -3.7447500000     -0.2724680000      0.2163650000
C                 -2.6451150000     -0.7665380000      0.9251030000
C                 -2.9193480000     -1.6749840000      2.0980300000
C                 -1.3470760000     -0.3874970000      0.4937190000
C                 -0.1224650000     -0.8594510000      1.1812930000
O                 -0.1688580000     -1.5759190000      2.1768960000
C                  1.2135490000     -0.4466530000      0.6357030000
C                  2.3405750000     -0.9408740000      1.2912540000
C                  3.6237800000     -0.6138670000      0.8580330000
C                  4.8460280000     -1.1704110000      1.5419060000
C                  3.7447570000      0.2324710000     -0.2483700000
C                  2.6451180000      0.7545810000     -0.9330790000
C                  2.9193520000      1.6590360000     -2.1099980000
C                  1.3470810000      0.4035770000     -0.4816680000
C                  0.1224680000      0.9075710000     -1.1452100000
O                  0.1688630000      1.6718490000     -2.1049560000
C                 -1.2135430000      0.4667240000     -0.6236560000
C                 -2.3405710000      0.9369010000     -1.2952430000
H                 -5.6302350000      0.3437990000     -1.6452770000
H                 -5.2602560000      1.9627870000     -1.0538900000
H                 -4.6082290000      1.4309610000     -2.6076590000
H                 -4.7381700000     -0.5677350000      0.5432460000
H                 -2.4366800000     -2.6473060000      1.9751100000
H                 -2.5295840000     -1.2561970000      3.0287560000
H                 -3.9943000000     -1.8275210000      2.2023570000
H                  2.1973250000     -1.5872820000      2.1483600000
H                  5.2276880000     -2.0394090000      0.9962650000
H                  4.6203940000     -1.4903160000      2.5598770000
H                  5.6505710000     -0.4322150000      1.5804970000
H                  4.7381760000      0.4997190000     -0.5912670000
H                  3.9983040000      1.7595750000     -2.2543220000
H                  2.4886810000      2.6513560000     -1.9630750000
H                  2.4775920000      1.2682520000     -3.0287280000
H                 -2.1973210000      1.5873060000     -2.1483510000





