$molecule
0 1
N                 -2.0456860000      2.8801660000     -0.0883530000
C                 -2.0377600000      1.5257130000      0.0522310000
C                 -3.2843700000      0.8427390000      0.1114520000
C                 -3.3532980000     -0.5145160000      0.2213450000
C                 -2.1823080000     -1.3200980000      0.2826760000
N                 -2.3277970000     -2.6719750000      0.3602780000
C                 -0.9243060000     -0.6755520000      0.2407580000
C                  0.2969380000     -1.4800520000      0.3319850000
O                  0.2764240000     -2.7162810000      0.4363400000
C                  1.6064160000     -0.7795680000      0.3015960000
C                  2.7859520000     -1.5301670000      0.3871600000
C                  4.0201980000     -0.8961770000      0.3597670000
C                  4.0910110000      0.4970130000      0.2462290000
C                  2.9271900000      1.2481910000      0.1607870000
C                  1.6773470000      0.6163450000      0.1878950000
C                  0.4453470000      1.4408390000      0.0945480000
O                  0.5503810000      2.6734640000     -0.0017770000
C                 -0.8513590000      0.7593660000      0.1244100000
H                 -1.1543440000      3.3621270000     -0.0616120000
H                 -2.9134610000      3.3831610000     -0.0191680000
H                 -4.1987740000      1.4254220000      0.0607620000
H                 -4.3221100000     -1.0027090000      0.2573050000
H                 -3.2408450000     -3.0667930000      0.5064250000
H                 -1.4893980000     -3.2302810000      0.4737270000
H                  2.7054860000     -2.6062810000      0.4737440000
H                  4.9306050000     -1.4813660000      0.4261940000
H                  5.0562460000      0.9905350000      0.2247070000
H                  2.9562730000      2.3267350000      0.0719150000
$end
$rem
   MAX_SCF_CYCLES=200
   BASIS  =  6-311++G(d,p)
   GUI  =  2
   JOB_TYPE  =  SP
   METHOD  =  B3LYP
   SOLVENT_METHOD = COSMO
$end
$solvent
   dielectric 37.219
   opticaldielectric 1.43
$end





