$molecule
-3 1
C                 -5.0345220000     -0.0749040000     -3.9597650000
C                 -4.4804180000     -0.0554460000     -5.2313560000
C                 -3.0753550000     -0.0122730000     -5.3788690000
C                 -4.2406670000     -0.0501120000     -2.7938950000
C                 -2.8184940000      0.0274410000     -2.9444750000
C                 -2.2741180000      0.0280930000     -4.2500400000
C                 -4.9088440000     -0.0936820000     -1.4686350000
C                 -3.9964250000     -0.0333610000     -0.3410720000
C                 -2.6201000000      0.0443790000     -0.5095160000
C                 -1.9439490000      0.0833940000     -1.7736810000
O                 -6.1631680000     -0.1670680000     -1.3868770000
O                 -0.6684710000      0.1525560000     -1.8742440000
S                 -4.6213820000     -0.0651990000      1.3949260000
O                 -5.4956440000      1.1342050000      1.5738170000
O                 -5.3416110000     -1.3614990000      1.5851270000
O                 -3.3902260000      0.0148370000      2.2538200000
H                 -6.1097350000     -0.1131420000     -3.8168150000
H                 -5.1168180000     -0.0761500000     -6.1157540000
H                 -2.6343090000     -0.0073450000     -6.3758280000
H                 -1.1922220000      0.0651090000     -4.3307480000
H                 -2.0014300000      0.0821360000      0.3798270000
$end
$rem
   MAX_SCF_CYCLES=200
   BASIS  =  6-311++G(d,p)
   GUI  =  2
   JOB_TYPE  =  SP
   METHOD  =  B3LYP
   SOLVENT_METHOD = COSMO
$end
$solvent
   dielectric 37.219
   opticaldielectric 1.43
$end





