%chk=121.chk
%nproc=8
%mem=30GB
#P UB3LYP/6-311++G(d,p) nosym opt freq

Oxidized

0 1
Cl                 2.6338280000      3.1715320000     -0.5537600000
C                  2.4961190000      1.4600640000     -0.2276370000
C                  3.7028490000      0.7722890000     -0.1019960000
C                  3.7119030000     -0.5926160000      0.1551900000
C                  2.5143600000     -1.2803750000      0.2857620000
C                  1.3008220000     -0.6064100000      0.1572270000
C                  0.0585140000     -1.4404800000      0.3109320000
O                  0.1678950000     -2.6230690000      0.5812770000
C                 -1.2645900000     -0.7785420000      0.1268370000
C                 -2.4960090000     -1.4648320000      0.1920010000
Cl                -2.6337920000     -3.1849080000      0.4819300000
C                 -3.7005220000     -0.7879360000      0.0171980000
C                 -3.7115840000      0.5796290000     -0.2217360000
C                 -2.5142350000      1.2803200000     -0.2898820000
C                 -1.3009940000      0.6112190000     -0.1212250000
C                 -0.0588630000      1.4581670000     -0.2170690000
O                 -0.1723180000      2.6588910000     -0.3837350000
C                  1.2644600000      0.7829790000     -0.1001400000
H                  4.6310000000      1.3222280000     -0.2068000000
H                  4.6567370000     -1.1131360000      0.2521380000
H                  2.4917180000     -2.3445920000      0.4869970000
H                 -4.6267450000     -1.3466780000      0.0723990000
H                 -4.6545500000      1.0955700000     -0.3544680000
H                 -2.4915970000      2.3466920000     -0.4734450000















