%chk=102-an.chk
%nproc=8
%mem=30GB
#P UB3LYP/6-311++G(d,p) nosym opt freq

Reduced

-2 1
C          2.37002        3.55811        4.15195
C          3.41084        3.50378        3.10139
C          3.45691        2.51414        2.20686
C          2.47065        1.42069        2.23030
C          1.38978        2.42910        4.19204
C          1.46625        1.42708        3.30720
O          2.36072        4.50520        4.92952
O          2.48712        0.53733        1.38406
S          0.25601        2.41570        5.49570
C         -1.32560        2.77119        4.73930
C         -2.42391        2.83748        5.61172
C         -1.55543        2.97249        3.37344
C         -2.84927        3.20893        2.89286
C         -3.71434        3.08237        5.13460
C         -3.92743        3.26209        3.77221
H          4.13119        4.31381        3.09985
H          4.21321        2.47024        1.43202
H          0.79376        0.57667        3.32578
H         -2.28471        2.69888        6.68270
H         -0.75148        2.95200        2.64659
H         -3.01397        3.35236        1.82751
H         -4.54925        3.13051        5.82906
H         -4.93072        3.44686        3.39683








