%chk=161.chk
%nproc=8
%mem=30GB
#P UB3LYP/6-311++G(d,p) nosym opt freq

Oxidized

0 1
N                 -4.5250980000      1.0190300000     -0.5046900000
C                 -3.2994860000      0.4424730000     -0.4037560000
C                 -3.1613840000     -0.9638270000     -0.4177580000
Cl                -4.6034730000     -1.9510390000     -0.6085540000
C                 -1.9389620000     -1.5775300000     -0.2901160000
C                 -0.7792080000     -0.8167560000     -0.1389950000
C                  0.4962620000     -1.5699090000     -0.0112990000
O                  0.5136880000     -2.7922130000     -0.0322690000
C                  1.7473310000     -0.7851460000      0.1390390000
C                  2.9705410000     -1.4531160000      0.2518670000
C                  4.1476010000     -0.7288260000      0.3922900000
C                  4.1096830000      0.6683980000      0.4220570000
C                  2.8968050000      1.3372210000      0.3118270000
C                  1.7062440000      0.6157580000      0.1686560000
C                  0.4240410000      1.3785140000      0.0557610000
O                  0.4440690000      2.5941600000      0.1092790000
C                 -0.8497940000      0.5971460000     -0.1179390000
C                 -2.1085260000      1.2022730000     -0.2543780000
Br                -2.3685500000      3.1042600000     -0.2672750000
H                 -4.5910170000      2.0182480000     -0.6120190000
H                 -5.3207480000      0.4484990000     -0.7363020000
H                 -1.8530170000     -2.6558380000     -0.3044860000
H                  2.9716660000     -2.5356640000      0.2266450000
H                  5.0955040000     -1.2476290000      0.4790940000
H                  5.0285300000      1.2331170000      0.5318060000
H                  2.8472970000      2.4183960000      0.3341040000


