$molecule
-1 2
C                 -1.7955140000      1.1240630000      0.6360610000
C                 -1.1416390000     -0.0937720000     -0.0614240000
C                 -1.6846500000     -1.3678530000      0.6133200000
C                 -1.5749980000     -0.1264320000     -1.5474490000
C                  0.3919640000      0.0155380000      0.0308430000
C                  1.1542410000     -0.9436470000      0.6576310000
C                  2.5987730000     -0.9020140000      0.7794540000
O                  3.2478480000     -1.8157000000      1.3686950000
C                  3.2346340000      0.2494850000      0.1832570000
C                  2.5027440000      1.2186640000     -0.4461010000
C                  1.0613080000      1.1783710000     -0.5680630000
O                  0.4393650000      2.1100210000     -1.1646490000
H                 -2.8890080000      1.0628230000      0.5621280000
H                 -1.5285330000      1.1438540000      1.6979920000
H                 -1.4578430000      2.0512790000      0.1737260000
H                 -2.7758440000     -1.3920920000      0.5168430000
H                 -1.4422230000     -1.3993190000      1.6796080000
H                 -1.2874400000     -2.2755120000      0.1495130000
H                 -1.1501250000     -1.0022360000     -2.0492660000
H                 -2.6682770000     -0.1888210000     -1.6235470000
H                 -1.2320000000      0.7711810000     -2.0613720000
H                  0.6962030000     -1.8153790000      1.1109590000
H                  4.3171880000      0.3131450000      0.2557790000
H                  2.9838250000      2.0843550000     -0.8939380000
$end
$rem
   MAX_SCF_CYCLES=200
   BASIS  =  6-311++G(d,p)
   GUI  =  2
   JOB_TYPE  =  SP
   METHOD  =  B3LYP
   SOLVENT_METHOD = COSMO
$end
$solvent
   dielectric 37.219
   opticaldielectric 1.43
$end





