$molecule
-2 1
Br                -1.6318400000      2.7103350000      1.0572520000
C                 -0.7019160000      1.1321790000      0.3168440000
C                 -1.4354630000      0.0849210000     -0.2620900000
C                 -0.7406460000     -0.9475960000     -1.0374030000
O                 -1.3569590000     -1.8524960000     -1.6906570000
C                  0.6833050000     -0.8388920000     -0.9555310000
C                  1.4191400000      0.1728560000     -0.3190680000
C                  0.7182180000      1.3035250000      0.2973410000
O                  1.3278130000      2.3136660000      0.7804540000
C                  2.8910130000      0.1546230000     -0.1846290000
C                  3.6621240000      1.3172990000     -0.3927440000
C                  5.0462590000      1.3071720000     -0.2383150000
C                  5.7160070000      0.1447760000      0.1544420000
C                  4.9663670000     -1.0100150000      0.3911560000
C                  3.5834840000     -1.0020790000      0.2259370000
Br                 1.5980050000     -2.1739440000     -2.0889860000
C                 -2.8958910000     -0.0786630000     -0.1029310000
C                 -3.7174030000     -0.4401420000     -1.1911280000
C                 -5.0893370000     -0.6226090000     -1.0352610000
C                 -5.6949600000     -0.4771870000      0.2161600000
C                 -4.8935200000     -0.1454950000      1.3112430000
C                 -3.5233710000      0.0475540000      1.1525950000
H                  3.1463140000      2.2305690000     -0.6525440000
H                  5.6082840000      2.2210560000     -0.4173240000
H                  6.7954740000      0.1415920000      0.2824560000
H                  5.4607210000     -1.9237440000      0.7126650000
H                  3.0187790000     -1.9042920000      0.4230020000
H                 -3.2491150000     -0.5985090000     -2.1519810000
H                 -5.6919670000     -0.8914840000     -1.8999240000
H                 -6.7646340000     -0.6284070000      0.3369160000
H                 -5.3368440000     -0.0414960000      2.2988160000
H                 -2.9174400000      0.2949240000      2.0147840000
$end

$rem
   BASIS  =  6-311++G(d,p)
   GUI  =  2
   JOB_TYPE  =  SP
   METHOD  =  B3LYP
   SCF_CONVERGENCE  = 8
   SOLVENT_METHOD = sm12
$end

$smx
   solvent dimethylformamide
   charges CM5
$end





