%chk=226-rad.chk
%nproc=8
%mem=30GB
#P UB3LYP/6-311++G(d,p) nosym opt freq

Radical

-3 2
O    -5.7446534053    1.2044621258   -1.4547675775
S    -5.2425349687    0.6619971123    0.0485100968
O    -5.0971672051    1.8684841245    0.9407158670
O    -6.2081958180   -0.2740592587    0.6721281188
C    -3.6731402897   -0.1334373091   -0.0700705266
C    -3.5523781586   -1.4847929037   -0.3099561814
C    -2.2792249583   -2.0193440899   -0.3863537267
C    -1.1402879745   -1.2665466114   -0.2345228874
C     0.2041610176   -1.8133437255   -0.3120306915
O     0.3201887672   -3.0465657956   -0.5308589359
C     1.3858436009   -0.9608713007   -0.1417171991
C     2.6640684935   -1.4893074427   -0.2169513020
C     3.7355404737   -0.6345342849   -0.0479031739
C     3.5676352650    0.7198556876    0.1918167230
C     2.3028859522    1.2420814260    0.2661452193
C     1.2347624925    0.3815401068    0.0961141934
C    -0.0960227881    0.9581231184    0.1791552395
O    -0.2718103811    2.1978169545    0.3982344557
C    -1.2553266034    0.0872321378    0.0058813794
C    -2.5397966184    0.6375209512    0.0849274503
S     4.9705948626    1.7626135136    0.3994733181
O     5.4652003197    2.3914560259   -1.0877401692
O     4.7321303400    2.8312786698    1.4033659146
O     6.0993005381    0.8885308555    0.8871952967
H    -4.4546106727   -2.0708122833   -0.4283899442
H    -2.1869570274   -3.0964736419   -0.5776261010
H     2.7894048006   -2.5516629514   -0.4050672334
H     4.7493548151   -0.9967196521   -0.0973824029
H     2.1435627824    2.3048681602    0.4538303982
H    -2.6225276519    1.7006102809    0.2738443818


