$molecule
-2 1
C                 -0.8775120000      2.3476390000     -0.9713230000
C                 -2.1686020000      1.8548290000     -1.0374680000
C                 -2.5432190000      0.7555190000     -0.2240730000
C                  0.0995400000      1.7896110000     -0.1135660000
C                 -0.2850870000      0.6727520000      0.7173100000
C                 -1.6097480000      0.1913480000      0.6284040000
C                  1.4446630000      2.3681350000     -0.1037010000
C                  2.3215690000      1.7063240000      0.8073790000
C                  1.9483250000      0.6310420000      1.6283480000
C                  0.6566230000      0.0406010000      1.6419850000
O                  1.7692490000      3.3649040000     -0.8463500000
O                  0.3274130000     -0.9547900000      2.3892180000
H                 -0.5596780000      3.1881580000     -1.5811050000
H                 -1.8608360000     -0.6501390000      1.2677310000
O                  3.6257110000      2.2108880000      0.9718920000
H                 -2.8942640000      2.3085140000     -1.7111130000
H                 -3.5568350000      0.3601510000     -0.2700290000
H                  2.6956160000      0.2152890000      2.3012300000
C                  4.6705220000      1.5326570000      0.2836760000
C                  5.9816750000      2.1417760000      0.7794910000
C                  4.5163140000      1.6364630000     -1.2357440000
H                  4.6458740000      0.4666770000      0.5664430000
H                  6.8472060000      1.6410010000      0.3332490000
H                  6.0582360000      2.0550220000      1.8676290000
H                  6.0277720000      3.2044730000      0.5188760000
H                  5.3316970000      1.1026600000     -1.7410560000
H                  4.5091290000      2.6856460000     -1.5414270000
H                  3.5608550000      1.2051630000     -1.5415540000
$end
$rem
   MAX_SCF_CYCLES=200
   BASIS  =  6-311++G(d,p)
   GUI  =  2
   JOB_TYPE  =  SP
   METHOD  =  B3LYP
   SOLVENT_METHOD = COSMO
$end
$solvent
   dielectric 37.219
   opticaldielectric 1.43
$end





