%chk=019.chk
%nproc=8
%mem=30GB
#P UB3LYP/6-311++G(d,p) nosym opt freq

Oxidized

0 1
C                 -2.9257610000      0.4240760000      0.5253280000
C                 -1.9615580000     -0.4075160000     -0.3432730000
C                 -2.3003100000     -0.3340310000     -1.8451040000
C                 -0.4969260000     -0.1141820000     -0.0507270000
C                  0.1766170000      1.0371550000     -0.2414990000
Br                -0.6101400000      2.6238350000     -0.9568040000
C                  1.6296670000      1.2137180000      0.0851590000
O                  2.1965150000      2.2697790000     -0.1037080000
C                  2.3833730000      0.0488070000      0.6569730000
C                  1.7185560000     -1.1031030000      0.8497410000
Br                 2.5854990000     -2.6369520000      1.5683380000
C                  0.2732070000     -1.2838160000      0.5268130000
O                 -0.2782250000     -2.3471100000      0.7222150000
C                  3.8331890000      0.2625170000      0.9714010000
H                 -2.9044210000      1.4849840000      0.2757890000
H                 -2.6912330000      0.3158430000      1.5874900000
H                 -3.9458590000      0.0612540000      0.3721540000
H                 -2.0962640000     -1.4477030000     -0.0461180000
H                 -2.2397940000      0.6807680000     -2.2385370000
H                 -1.6317960000     -0.9703950000     -2.4307900000
H                 -3.3208960000     -0.6955750000     -1.9980560000
H                  4.4536240000     -0.4408990000      0.4093250000
H                  4.1280060000      1.2797120000      0.7235010000
H                  4.0249320000      0.0788340000      2.0321450000


