%chk=023-rad.chk
%nproc=8
%mem=30GB
#P UB3LYP/6-311++G(d,p) nosym  opt freq

Radical

-1 2
C    -3.0541235047   -1.3888504422    0.0251066161
O    -2.1157329907   -0.9091618930   -0.8888938594
C    -1.1206964468   -0.0454392473   -0.4633826013
C    -1.3722318952    1.2387152395   -0.2658465428
Br   -3.1516871202    1.8876097684   -0.5813779600
C    -0.3326969535    2.1318234630    0.1768230147
O    -0.5744137866    3.3614315368    0.3657459372
C     1.0239451173    1.6618429296    0.4224116774
C     1.2832674340    0.3710771645    0.2254865606
O     2.5592720247   -0.0841089940    0.4538066261
C     3.2727016655   -0.9045199503   -0.4230213069
C     0.2262904107   -0.5280726991   -0.2227936076
O     0.4743827901   -1.7678700948   -0.4121921634
Br    2.3503089965    2.8926562351    1.0057650962
H    -3.5924174068   -0.5019564200    0.4512449445
H    -3.7758684135   -2.0634437447   -0.4679750829
H    -2.5842992056   -1.9371643683    0.8916765430
H     4.2757821751   -1.1134560529    0.0207456181
H     2.8025850372   -1.8948561344   -0.5792764033
H     3.4056320725   -0.4062562958   -1.3966335691


