%chk=092.chk
%nproc=8
%mem=30GB
#P UB3LYP/6-311++G(d,p) nosym opt freq SCRF=(PCM,Solvent=n,n-DiMethylFormamide)

Oxidized

0 1
C                  4.3050360000      0.6997690000     -0.4331450000
C                  3.5157130000     -0.2974890000      0.3630540000
C                  2.7500610000      0.1124340000      1.3948130000
C                  2.6743510000      1.5593120000      1.7499550000
C                  3.4970130000      2.5554940000      0.9737480000
C                  4.2870670000      2.1318540000     -0.0490940000
O                  4.9507480000      0.3375650000     -1.4078010000
O                  1.9698090000      1.9420710000      2.6647610000
C                  6.3819990000      2.8807360000     -0.9458020000
C                  4.1015650000      4.9130210000      1.0198650000
H                  6.7112790000      3.7021750000     -1.5808130000
H                  6.6534600000      1.9282500000     -1.3979440000
H                  6.8412630000      2.9776010000      0.0445120000
H                  3.7502890000      5.7396330000      1.6352590000
H                  3.9641630000      5.1371240000     -0.0363440000
C                  1.9072610000     -0.8197540000      2.2396350000
C                  0.5079730000     -0.9720740000      1.6844210000
C                 -0.1613430000     -2.1013470000      1.4150430000
C                 -1.5726530000     -2.0280430000      0.8667410000
C                 -1.6960300000     -2.4517810000     -0.6189490000
C                 -3.1210560000     -2.4314670000     -1.0990030000
C                 -3.6819190000     -1.6509170000     -2.0336670000
C                 -5.1570140000     -1.7887540000     -2.3529030000
C                 -6.0188350000     -0.5791890000     -1.9115760000
C                 -7.4633050000     -0.7396030000     -2.2972080000
C                 -8.5373140000     -0.8326290000     -1.5017360000
C                 -9.9197080000     -0.9989950000     -2.0853260000
C                  0.3732220000     -3.4940660000      1.6425210000
C                 -2.9390640000     -0.6112260000     -2.8369280000
C                 -8.5024480000     -0.7795550000      0.0050870000
H                  1.8380920000     -0.3902620000      3.2436500000
H                  2.4082630000     -1.7835220000      2.3273940000
H                 -0.0043510000     -0.0281970000      1.5112000000
H                 -1.9540940000     -1.0084300000      0.9692220000
H                 -2.2293610000     -2.6701720000      1.4686270000
H                 -1.3023070000     -3.4689170000     -0.7357720000
H                 -1.0581130000     -1.8020080000     -1.2219380000
H                 -3.7724790000     -3.1484050000     -0.5985710000
H                 -5.5533020000     -2.6895050000     -1.8754860000
H                 -5.2821720000     -1.9275430000     -3.4353820000
H                 -5.6294140000      0.3300840000     -2.3855040000
H                 -5.9025340000     -0.4388970000     -0.8345570000
H                 -7.6374080000     -0.7974080000     -3.3718690000
H                 -9.8987470000     -1.0319430000     -3.1764970000
H                -10.5761230000     -0.1747620000     -1.7812930000
H                  1.3938520000     -3.5078100000      2.0243780000
H                  0.3541380000     -4.0843270000      0.7204890000
H                 -0.2574710000     -4.0254330000      2.3648200000
H                 -1.8736590000     -0.5775120000     -2.6116500000
H                 -3.3452080000      0.3904160000     -2.6607250000
H                 -3.0497310000     -0.8086220000     -3.9096630000
H                 -7.4964050000     -0.6794770000      0.4111880000
H                 -8.9494240000     -1.6858670000      0.4303250000
H                 -9.0997710000      0.0630000000      0.3734250000
H                -10.3899000000     -1.9216260000     -1.7243990000
O                  3.2976130000      3.7959810000      1.4269150000
O                  4.9533830000      3.0177420000     -0.8461220000
C                  3.6302840000     -1.7332870000     -0.0685550000
H                  5.1579640000      4.7249280000      1.2241010000
H                  2.6494410000     -2.2104260000     -0.1048990000
H                  4.2503430000     -2.3016830000      0.6339360000
H                  4.0984740000     -1.7955110000     -1.0494680000


