$molecule
-1 1
C                 -5.0461510000     -0.0935260000     -3.9588530000
C                 -4.4809470000     -0.0680410000     -5.2293510000
C                 -3.0926580000      0.0013560000     -5.3788850000
C                 -4.2302720000     -0.0499540000     -2.8253240000
C                 -2.8385620000      0.0195300000     -2.9769080000
C                 -2.2746780000      0.0449540000     -4.2554530000
C                 -4.8712990000     -0.0790020000     -1.4590040000
C                 -3.9510730000     -0.0302080000     -0.2834500000
C                 -2.6165530000      0.0360890000     -0.4542070000
C                 -1.9589240000      0.0662020000     -1.7682310000
O                 -6.0797950000     -0.1394090000     -1.3624960000
O                 -0.7391520000      0.1269290000     -1.8767260000
S                 -4.6343630000     -0.0598230000      1.4299420000
O                 -5.4793220000      1.1523820000      1.4844170000
O                 -5.3555880000     -1.3491360000      1.4911360000
O                 -3.4187220000      0.0025710000      2.2762830000
H                 -6.1187800000     -0.1471010000     -3.8166010000
H                 -5.1194240000     -0.1021290000     -6.1058870000
H                 -2.6537490000      0.0211550000     -6.3708430000
H                 -1.1958960000      0.0988780000     -4.3410770000
H                 -1.9720030000      0.0702530000      0.4174670000
$end
$rem
   MAX_SCF_CYCLES=200
   BASIS  =  6-311++G(d,p)
   GUI  =  2
   JOB_TYPE  =  SP
   METHOD  =  B3LYP
   SOLVENT_METHOD = PCM
$end
$pcm
   theory = CPCM
$end
$solvent
   dielectric 37.219
   opticaldielectric 1.43
$end






