%chk=108-rad.chk
%nproc=8
%mem=30GB
#P UB3LYP/6-311++G(d,p) nosym  opt freq

Radical

-1 2
C                 -1.7600580000     -3.7352800000      1.2271450000
C                 -0.31486940000     -3.9727980000      1.0710300000
C                  0.4844570000     -2.9704070000      0.6935490000
C                 -0.0397750000     -1.5936250000      0.4200190000
C                 -1.4876380000     -1.3344010000      0.5711240000
C                 -2.2800090000     -2.3636550000      0.9495160000
O                 -2.5525860000     -4.6029090000      1.5685440000
O                  0.7467230000     -0.7213870000      0.0802200000
O                 -3.6063980000     -2.2278540000      1.1099210000
C                 -2.0262420000      0.0387550000      0.2982950000
H                  0.0398260000     -4.9761580000      1.2763290000
H                  1.5545590000     -3.0894740000      0.5643690000
H                 -1.2020390000      0.7364850000      0.1220660000
H                 -2.6363740000      0.3934960000      1.1420990000
H                 -2.6779780000      0.0319920000     -0.5894440000
H                 -3.9446320000     -3.0985490000      1.3903480000














