%chk=228.chk
%nproc=8
%mem=30GB
#P UB3LYP/6-311++G(d,p) nosym opt freq SCRF=(PCM,Solvent=n,n-DiMethylFormamide)

Oxidized

0 1
C                  5.8168810000     -5.1095630000      1.2543830000
C                  6.8112150000     -5.0400580000      0.2901320000
C                  6.6920060000     -4.1292620000     -0.7740590000
C                  4.6982000000     -4.2764600000      1.1696340000
C                  4.5790240000     -3.3690260000      0.1101780000
C                  5.5742760000     -3.2937530000     -0.8624050000
C                  3.6326040000     -4.3593120000      2.2125920000
C                  2.4492940000     -3.4569610000      2.0937710000
C                  2.3356070000     -2.5754800000      1.0678920000
C                  3.3869850000     -2.4744480000      0.0124610000
O                  3.7330650000     -5.1487660000      3.1378790000
O                  3.2803830000     -1.6824460000     -0.9093020000
C                  7.7195800000     -4.0589790000     -1.7689780000
N                  8.5522370000     -4.0076750000     -2.5679670000
H                  5.8888890000     -5.8038170000      2.0820410000
H                  7.6811810000     -5.6822890000      0.3488010000
H                  5.4675830000     -2.5870560000     -1.6753280000
C                  1.4019580000     -3.5758620000      3.1648990000
C                  1.1544550000     -1.6567120000      0.9302400000
H                  1.6652610000     -4.3592120000      3.8727190000
H                  0.4238550000     -3.8048080000      2.7308810000
H                  1.2950460000     -2.6329030000      3.7108980000
H                  0.2276300000     -2.2287060000      0.8181460000
H                  1.2711280000     -1.0107360000      0.0624400000
H                  1.0381590000     -1.0338340000      1.8224120000


