%chk=127-an-PCM.chk
%nproc=8
%mem=30GB
#P UB3LYP/6-311++G(d,p) SCRF=(PCM,Solvent=n,n-DiMethylFormamide)

Reduced 

-2 1
C                 -2.9562180000     -2.0586690000     -0.0354480000
C                 -2.3267830000     -0.6778730000     -0.0487510000
C                 -3.1876980000      0.3975090000     -0.0966040000
C                 -2.7053590000      1.7312010000     -0.1130150000
C                 -1.3554030000      2.0079690000     -0.0819060000
C                 -0.9558870000      3.4718260000     -0.1037540000
C                 -0.3952840000      0.9298430000     -0.0312980000
C                  1.0238770000      1.2262420000      0.0012030000
O                  1.5126110000      2.4228340000     -0.0118090000
C                  1.9020650000      0.0791010000      0.0507240000
C                  3.3061720000      0.2849610000      0.0844800000
C                  4.2045360000     -0.7612900000      0.1321560000
C                  3.7199360000     -2.1011990000      0.1485660000
C                  2.3598390000     -2.3316720000      0.1166920000
C                  1.4118790000     -1.2762080000      0.0674880000
C                  0.0027430000     -1.5970850000      0.0363670000
O                 -0.3870490000     -2.8294260000      0.0536850000
C                 -0.8988230000     -0.4623900000     -0.0139790000
H                 -2.6689540000     -2.6272600000      0.8511150000
H                 -2.6190060000     -2.6666820000     -0.8770510000
H                 -4.0518430000     -1.9548680000     -0.0693310000
H                 -4.2620180000      0.2181960000     -0.1225220000
H                 -3.4166860000      2.5555430000     -0.1510210000
H                 -0.3157270000      3.7052200000     -0.9566790000
H                 -0.3629560000      3.7439170000      0.7715380000
H                 -1.8646930000      4.0921990000     -0.1425170000
H                  3.6379300000      1.3186800000      0.0706230000
H                  5.2760770000     -0.5662970000      0.1570340000
H                  4.4190990000     -2.9358300000      0.1860730000
H                  1.9536230000     -3.3384880000      0.1279390000





