%chk=326-an.chk
%nproc=8
%mem=30GB
#P UB3LYP/6-311++G(d,p) nosym opt freq

Reduced

-3 1
C                 -1.8381370000      2.7917830000     -0.8044910000
C                 -2.9326670000      1.9955590000     -0.5216580000
C                 -2.7172780000      0.6757340000     -0.0581580000
C                 -0.5030270000      2.3407790000     -0.6438000000
C                 -0.2877890000      0.9804820000     -0.1970680000
C                 -1.4282130000      0.1916550000      0.0970850000
C                  0.5897280000      3.2611060000     -0.9718200000
C                  1.9751350000      2.7411470000     -0.8163430000
C                  2.1113190000      1.3779200000     -0.3677460000
C                  1.0648910000      0.5239100000     -0.0721270000
O                  0.3635640000      4.4452810000     -1.3664880000
O                  2.9975640000      3.4627510000     -1.0595350000
H                 -1.9630390000      3.8086420000     -1.1623270000
H                 -3.9484010000      2.3715180000     -0.6538990000
H                 -3.5687220000      0.0360640000      0.1678240000
H                 -1.2723420000     -0.8211100000      0.4466120000
H                  3.1252820000      1.0085660000     -0.2597630000
S                  1.4732840000     -1.1766370000      0.4851330000
O                  2.9682350000     -1.2706850000      0.4861030000
O                  0.8459750000     -2.1209310000     -0.4971970000
O                  0.8939890000     -1.3349360000      1.8599320000


