$molecule
-2 1
C                  2.0816210000      3.8669450000      5.6660830000
C                  2.8607810000      3.2965410000      4.5805810000
C                  2.3769870000      2.3770130000      3.6805780000
C                  1.0218560000      1.8651400000      3.7087240000
C                  0.2427160000      2.4074630000      4.7556200000
C                  0.7096040000      3.3611750000      5.7201700000
O                  2.6062420000      4.7220380000      6.4478300000
O                  0.6066880000      0.9946510000      2.8391380000
H                  3.8886900000      3.6531100000      4.5121120000
H                  3.0240820000      1.9914320000      2.8901420000
H                 -0.7800580000      2.0583330000      4.8331620000
C                 -0.1818590000      3.8237830000      6.7646120000
O                  0.0316630000      4.5423900000      7.7325660000
O                 -1.5125140000      3.3445500000      6.5931960000
C                 -2.4070530000      3.6821640000      7.6316420000
H                 -3.3850010000      3.2867970000      7.3389820000
H                 -2.4795170000      4.7654600000      7.7774420000
H                 -2.1139070000      3.2388670000      8.5942620000
$end
$rem
   MAX_SCF_CYCLES=200
   BASIS  =  6-311++G(d,p)
   GUI  =  2
   JOB_TYPE  =  SP
   METHOD  =  B3LYP
   SOLVENT_METHOD = PCM
$end
$pcm
   theory = CPCM
$end
$solvent
   dielectric 37.219
   opticaldielectric 1.43
$end





