%chk=125.chk
%nproc=8
%mem=30GB
#P UB3LYP/6-311++G(d,p) nosym opt freq

Oxidized

0 1
C                 -4.6989380000     -0.3684880000     -0.5524400000
C                 -3.9940560000     -0.4286000000      0.8149130000
C                 -2.5692790000      0.0723950000      0.7589180000
C                 -2.2762520000      1.4320170000      0.9481450000
C                 -0.9740700000      1.9052060000      0.8632180000
C                  0.0788840000      1.0281820000      0.5859090000
C                  1.4675440000      1.5588090000      0.5022160000
O                  1.7076400000      2.7445700000      0.6670410000
C                  2.5589520000      0.5828740000      0.2075970000
C                  3.8761320000      1.0436920000      0.1201310000
C                  4.9105380000      0.1564080000     -0.1527210000
C                  4.6382200000     -1.2015600000     -0.3410040000
C                  3.3321320000     -1.6688310000     -0.2558870000
C                  2.2848820000     -0.7835220000      0.0181240000
C                  0.8919790000     -1.3136370000      0.1038290000
O                  0.6554400000     -2.4998710000     -0.0597240000
C                 -0.1982010000     -0.3371470000      0.3959720000
C                 -1.5137130000     -0.7980510000      0.4849190000
H                 -4.1750800000     -0.9811910000     -1.2907090000
H                 -5.7255850000     -0.7357970000     -0.4735440000
H                 -4.7335640000      0.6558310000     -0.9330960000
H                 -4.5587350000      0.1659140000      1.5399270000
H                 -4.0004190000     -1.4598440000      1.1800500000
H                 -3.0825010000      2.1241190000      1.1700640000
H                 -0.7474600000      2.9537610000      1.0126560000
H                  4.0639260000      2.0997400000      0.2696080000
H                  5.9300480000      0.5190070000     -0.2194780000
H                  5.4464800000     -1.8920640000     -0.5536760000
H                  3.0981210000     -2.7166200000     -0.3980570000
H                 -1.6930630000     -1.8573040000      0.3388000000


