$molecule
-2 1
O                  4.8703400000     -0.9340240000      0.0176660000
C                  3.6396690000     -0.2742880000      0.0583080000
C                  3.5807760000      1.1344440000      0.1260840000
C                  2.3463370000      1.7584720000      0.1651200000
C                  1.1348080000      1.0270230000      0.1393960000
C                 -0.1427410000      1.7436110000      0.1832750000
O                 -0.1608760000      3.0107770000      0.2437140000
C                 -1.3351180000      0.9028910000      0.1524960000
C                 -2.6590420000      1.4472720000      0.1892650000
O                 -2.8410350000      2.8262160000      0.2573370000
C                 -3.7804770000      0.6438140000      0.1591730000
C                 -3.6689800000     -0.7748050000      0.0908550000
C                 -2.4310890000     -1.3629200000      0.0524720000
O                 -2.3333680000     -2.7255710000     -0.0141960000
C                 -1.2264400000     -0.5581810000      0.0814720000
C                  0.0298410000     -1.2000580000      0.0413490000
O                  0.1529670000     -2.5577910000     -0.0241070000
C                  1.1990880000     -0.4032330000      0.0705740000
C                  2.4860580000     -1.0276680000      0.0310770000
O                  2.6014650000     -2.3903770000     -0.0343510000
H                  4.6256260000     -1.8708390000     -0.0243790000
H                  4.5077450000      1.7012820000      0.1458720000
H                  2.2632640000      2.8383290000      0.2172220000
H                 -3.7961330000      2.9519370000      0.2854860000
H                 -4.7680680000      1.1063560000      0.1879160000
H                 -4.5542140000     -1.4037950000      0.0673780000
H                 -1.3339770000     -2.9107060000     -0.0301790000
H                  1.5935760000     -2.6989680000     -0.0412380000
$end
$rem
   MAX_SCF_CYCLES=200
   BASIS  =  6-311++G(d,p)
   GUI  =  2
   JOB_TYPE  =  SP
   METHOD  =  B3LYP
   SOLVENT_METHOD = PCM
$end
$pcm
   theory = CPCM
$end
$solvent
   dielectric 37.219
   opticaldielectric 1.43
$end






