$molecule
-2 1
O                  2.3669070000      1.6243180000      0.3532210000
C                  1.7303830000      0.4891290000      0.2283820000
C                  2.3940850000     -0.7552030000      0.2553720000
C                  1.6902010000     -1.9705380000      0.1191950000
C                  0.3177570000     -1.9946780000     -0.0467830000
C                 -0.4222360000     -0.7830580000     -0.0842000000
C                 -1.8860130000     -0.8415680000     -0.2621610000
O                 -2.5091220000     -1.9632010000     -0.3847390000
C                 -2.5267900000      0.4218520000     -0.2852700000
C                 -1.8305720000      1.6457560000     -0.1496200000
C                 -0.4600950000      1.6889950000      0.0165590000
O                  0.1950980000      2.9033530000      0.1468160000
C                  0.2756940000      0.4641640000      0.0525670000
H                  1.1641200000      2.6256710000      0.2508950000
H                  3.4747680000     -0.7438720000      0.3857050000
H                  2.2471000000     -2.9094830000      0.1462550000
H                 -0.2382120000     -2.9195560000     -0.1527740000
H                 -3.6085500000      0.4278670000     -0.4147480000
H                 -2.3745200000      2.5900530000     -0.1746730000
$end
$rem
   MAX_SCF_CYCLES=200
   BASIS  =  6-311++G(d,p)
   GUI  =  2
   JOB_TYPE  =  SP
   METHOD  =  B3LYP
   SOLVENT_METHOD = COSMO
$end
$solvent
   dielectric 37.219
   opticaldielectric 1.43
$end





