%chk=016-rad-PCM.chk
%nproc=8
%mem=30GB
#P UB3LYP/genecp SCRF=(PCM,Solvent=n,n-DiMethylFormamide)

Radical PCM in DMF 

-1 2
C                 -1.7548970000      1.4676680000      1.0452310000
C                 -2.9564850000      0.6946390000      0.8071560000
C                 -3.0034310000     -0.5302170000      0.2003500000
C                 -1.7575910000     -1.1536650000     -0.2651010000
C                 -0.5320410000     -0.3853450000     -0.0323550000
C                 -0.5210690000      0.8435810000      0.5806530000
O                 -1.7294970000     -2.2751530000     -0.8291650000
O                 -1.7962560000      2.5866160000      1.6098220000
I                  1.2191360000      1.9958370000      0.9410810000
I                  1.2156260000     -1.3595140000     -0.7352950000
H                 -3.8551510000      1.1828590000      1.1622340000
C                 -4.3303060000     -1.2839020000     -0.0131470000
C                 -5.5391990000     -0.4972260000      0.5296020000
C                 -4.2874070000     -2.6450910000      0.7230470000
C                 -4.5644960000     -1.5196890000     -1.5251500000
H                 -5.6547200000      0.4697390000      0.0315570000
H                 -5.4608020000     -0.3183370000      1.6058350000
H                 -6.4527190000     -1.0746580000      0.3530400000
H                 -4.1538630000     -2.4938270000      1.7991970000
H                 -3.4660970000     -3.2569760000      0.3524280000
H                 -5.2305400000     -3.1841620000      0.5715050000
H                 -4.6295870000     -0.5640530000     -2.0555620000
H                 -5.5077520000     -2.0576340000     -1.6799760000
H                 -3.7501170000     -2.1018720000     -1.9543080000

H C O 0
6-311++G(d,p)
****
I 0
def2TZVP
****

I 0
def2TZVP













