%chk=219-an-PCM.chk
%nproc=8
%mem=30GB
#P UB3LYP/6-311++G(d,p) SCRF=(PCM,Solvent=n,n-DiMethylFormamide)

Reduced 

-2 1
C                  5.0657980000     -2.4599560000      0.3710540000
C                  5.8242390000     -1.5115960000     -0.2696790000
C                  5.1423640000     -0.4826190000     -0.9922300000
C                  3.6461570000     -2.4688220000      0.3298980000
C                  2.9732360000     -1.4194650000     -0.4157450000
C                  3.7573240000     -0.4483210000     -1.0618680000
C                  2.9274240000     -3.5115310000      1.0214990000
C                  1.4762410000     -3.4190060000      0.8986350000
C                  0.8033320000     -2.3695730000      0.1530510000
C                  1.5220590000     -1.3268910000     -0.5385200000
C                  0.6921770000     -4.3902670000      1.5445420000
C                 -0.6163310000     -2.3783830000      0.1120240000
C                 -1.3747570000     -3.3268040000      0.7526570000
O                  3.5032960000     -4.4331610000      1.6875520000
O                  0.9461800000     -0.4052110000     -1.2045810000
H                  5.5357060000     -3.2529100000      0.9434830000
H                 -2.4564800000     -3.3230330000      0.7069480000
H                  3.2339480000      0.3282150000     -1.6082410000
H                  1.2155760000     -5.1669420000      2.0907080000
H                 -1.0862420000     -1.5852900000     -0.4602100000
C                 -0.6928920000     -4.3559840000      1.4749700000
S                  6.0731660000      0.6612650000     -1.9393240000
H                  6.9059510000     -1.5152170000     -0.2237320000
S                 -1.6235640000     -5.5000590000      2.4218490000
O                 -0.8342710000     -6.7060000000      2.7344290000
O                 -2.9841110000     -5.6894220000      1.8884920000
N                 -1.9001340000     -4.6349280000      3.9046420000
H                 -0.9973390000     -4.5017090000      4.3563680000
H                 -2.4737710000     -5.2382040000      4.4937450000
O                  5.2836090000      1.8668310000     -2.2526270000
O                  7.4335120000      0.8511520000     -1.4055770000
N                  6.3507110000     -0.2043220000     -3.4214610000
H                  6.9265440000      0.3977450000     -4.0096140000
H                  5.4486030000     -0.3364960000     -3.8748170000





