%chk=318-an.chk
%nproc=8
%mem=30GB
#P UB3LYP/6-311++G(d,p) nosym opt freq

Reduced

-2 1
Br                -2.3628400000      2.1558330000      0.8166030000
C                 -0.9702970000      0.8848660000      0.3471130000
C                 -1.2676270000     -0.5010090000      0.2398660000
Br                -3.0747590000     -1.1567760000      0.6026580000
C                 -0.3318180000     -1.5192050000     -0.1056780000
O                 -0.6044920000     -2.7431170000     -0.1798860000
C                  1.0896820000     -1.0438170000     -0.3899450000
O                  1.9752560000     -1.8802820000     -0.6963860000
C                  1.3077760000      0.3602840000     -0.2754580000
C                  0.3213500000      1.3169850000      0.0885880000
Br                 0.7714270000      3.2043060000      0.1894860000
Br                 3.1451420000      0.9231320000     -0.6425600000





