$molecule
-1 2
C                  4.6230620000      1.2924760000     -0.5372470000
C                  3.3133230000      0.6065660000     -0.2306780000
C                  3.3100140000     -0.6629140000      0.3823300000
C                  2.1239060000     -1.3245650000      0.6794950000
O                  2.1936680000     -2.5574380000      1.2764110000
C                  0.8589880000     -0.7468150000      0.3764260000
C                 -0.4126590000     -1.4376760000      0.6856810000
O                 -0.4386260000     -2.5548990000      1.2238230000
C                 -1.6525920000     -0.7193270000      0.3160100000
C                 -2.9437180000     -1.2681620000      0.5569930000
O                 -3.0704280000     -2.4967490000      1.1478500000
C                 -4.1037920000     -0.5847080000      0.2054470000
C                 -4.0196600000      0.6750850000     -0.4011650000
O                 -5.2148870000      1.2940560000     -0.7222900000
C                 -2.7965780000      1.2469220000     -0.6544460000
C                 -1.6092480000      0.5664550000     -0.3038700000
C                 -0.3499130000      1.2376540000     -0.6044070000
O                 -0.3317740000      2.3765090000     -1.1538700000
C                  0.8768670000      0.5402890000     -0.2447050000
C                  2.1012930000      1.1870240000     -0.5338890000
H                  5.2120940000      1.4584230000      0.3729890000
H                  4.4542780000      2.2630400000     -1.0091820000
H                  5.2420660000      0.6916570000     -1.2146510000
H                  4.2546670000     -1.1448330000      0.6328070000
H                  3.1285190000     -2.7597160000      1.3930710000
H                 -4.0133340000     -2.6814210000      1.2192980000
H                 -5.0803630000     -1.0197730000      0.3973310000
H                 -5.0033190000      2.1412920000     -1.1277940000
H                 -2.6940920000      2.2206820000     -1.1225620000
H                  2.0422380000      2.1608660000     -1.0052070000
$end
$rem
   MAX_SCF_CYCLES=200
   BASIS  =  6-311++G(d,p)
   GUI  =  2
   JOB_TYPE  =  SP
   METHOD  =  B3LYP
   SOLVENT_METHOD = COSMO
$end
$solvent
   dielectric 37.219
   opticaldielectric 1.43
$end





