%chk=247-PCM.chk
%nproc=8
%mem=30GB
#P UB3LYP/6-311++G(d,p) SCRF=(PCM,Solvent=n,n-DiMethylFormamide)

Quinone PCM in DMF 

0 1
C                 -3.1850150000      1.4045140000      0.2465200000
C                 -2.4388040000      0.7149670000     -0.9119290000
C                 -1.1012210000      0.1558050000     -0.4914350000
C                 -0.9149170000     -1.1026640000     -0.0196900000
C                 -2.0058460000     -2.1226980000      0.1476660000
C                  0.4443660000     -1.5887480000      0.3740240000
O                  0.5936000000     -2.7346690000      0.7710680000
C                  1.5994190000     -0.6547990000      0.2727990000
C                  2.8768790000     -1.0827030000      0.6423690000
C                  3.9543630000     -0.2077150000      0.5507150000
C                  3.7616770000      1.0974080000      0.0899980000
C                  2.4917010000      1.5279680000     -0.2799630000
C                  1.4060150000      0.6533000000     -0.1897640000
C                  0.0467570000      1.1134230000     -0.5905640000
O                 -0.1324270000      2.2528660000     -0.9942060000
H                 -4.1373980000      1.8107940000     -0.1039590000
H                 -2.5958110000      2.2306630000      0.6500830000
H                 -3.3935050000      0.7044720000      1.0600600000
H                 -3.0598870000     -0.0779400000     -1.3323090000
H                 -2.2674570000      1.4481670000     -1.7017530000
H                 -1.9944540000     -2.5189080000      1.1660510000
H                 -2.9928480000     -1.7170520000     -0.0613090000
H                 -1.8279140000     -2.9798420000     -0.5087810000
H                  3.0030820000     -2.0982090000      0.9968980000
H                  4.9456870000     -0.5396500000      0.8377390000
H                  4.6037600000      1.7766010000      0.0201100000
H                  2.3202010000      2.5346490000     -0.6404400000





