%chk=002.chk
%nproc=8
%mem=30GB
#P UB3LYP/6-311++G(d,p) nosym opt freq

Oxidized

0 1
C          0.05745        1.65740       -0.00062
C         -1.22044        0.90581       -0.00072
C         -1.21027       -0.44188       -0.00015
C          0.08007       -1.17437        0.00099
C          1.36605       -0.42565        0.00245
C          1.35421        0.93022        0.00126
O          0.04048        2.87965       -0.00129
O          0.08208       -2.39681        0.00112
C          2.57707        1.71055        0.00224
C          2.60509       -1.18063        0.00587
N          3.54100        2.35113        0.00299
N          3.58491       -1.79680        0.00862
Cl        -2.73887        1.80722       -0.00112
Cl        -2.71694       -1.36295       -0.00015








