%chk=245-an.chk
%nproc=8
%mem=30GB
#P UB3LYP/6-311++G(d,p) nosym opt freq SCRF=(PCM,Solvent=n,n-DiMethylFormamide)

Reduced

-2 1
C                  5.7332030000     -5.3525760000      1.3219410000
C                  6.6989220000     -5.1958990000      0.3457020000
C                  6.6070450000     -4.1667920000     -0.6212270000
C                  4.6038520000     -4.4614770000      1.3728490000
C                  4.5076800000     -3.3864590000      0.3623810000
C                  5.5478640000     -3.2789290000     -0.6268410000
C                  3.5801040000     -4.6252130000      2.4061190000
C                  2.5250580000     -3.6818280000      2.3404970000
C                  2.4340780000     -2.6662360000      1.3856110000
C                  3.3848810000     -2.4474220000      0.3582360000
O                  3.6113560000     -5.5509510000      3.3216130000
O                  3.2461010000     -1.4824640000     -0.5053090000
C                  5.9316670000     -6.4900040000      2.3080350000
H                  7.5475810000     -5.8796050000      0.3217280000
H                  1.5871900000     -1.9786810000      1.4037480000
C                  5.5499280000     -2.2142710000     -1.7094470000
H                  7.3861270000     -4.0709330000     -1.3775910000
H                  6.8641760000     -7.0228040000      2.0615660000
H                  5.0937250000     -7.1897490000      2.2938690000
H                  5.9735750000     -6.1307260000      3.3380270000
H                  1.7489860000     -3.7830680000      3.1005900000
H                  5.5369580000     -1.2072440000     -1.2879060000
H                  4.6529500000     -2.2652060000     -2.3295900000
H                  6.4452460000     -2.3415340000     -2.3390610000


