$molecule
-1 2
C                 -1.8263900000      3.1489940000      0.2471810000
C                 -2.9569260000      2.4399920000     -0.1141610000
C                 -2.8509500000      1.0839200000     -0.4844030000
C                 -0.5562670000      2.5324910000      0.2516320000
C                 -0.4470420000      1.1622330000     -0.1225220000
C                 -1.6117930000      0.4639340000     -0.4856490000
C                  0.6268750000      3.2752790000      0.6300900000
C                  1.8807750000      2.5581460000      0.6021210000
C                  2.0221440000      1.2317410000      0.2521790000
C                  0.8573150000      0.4652820000     -0.1366270000
O                  0.6433600000      4.5009380000      0.9817940000
O                  0.9389300000     -0.7451830000     -0.4714540000
H                 -1.8823840000      4.1925800000      0.5359050000
H                 -3.9277910000      2.9272950000     -0.1131230000
H                 -3.7394280000      0.5275860000     -0.7681590000
H                 -1.5005570000     -0.5773620000     -0.7663510000
C                  3.3705300000      0.5577210000      0.2462250000
O                  2.9511580000      3.3227930000      0.9670350000
C                  4.0625190000      0.6047020000     -1.1290430000
H                  3.2281550000     -0.4891190000      0.5293370000
H                  4.0170400000      1.0309810000      0.9913250000
H                  2.5249180000      4.1875200000      1.1586830000
H                  3.4407920000      0.1141590000     -1.8821510000
H                  5.0325270000      0.0931270000     -1.1009190000
H                  4.2333310000      1.6384990000     -1.4435040000
$end
$rem
   MAX_SCF_CYCLES=200
   BASIS  =  6-311++G(d,p)
   GUI  =  2
   JOB_TYPE  =  SP
   METHOD  =  B3LYP
   SOLVENT_METHOD = COSMO
$end
$solvent
   dielectric 37.219
   opticaldielectric 1.43
$end





