%chk=302-rad.chk
%nproc=8
%mem=30GB
#P UB3LYP/6-311++G(d,p) nosym  opt freq

Radical

-1 2
 C                 -1.88094500    4.54213600    5.28420500
 C                 -3.15113700    4.00842500    5.39669500
 C                 -3.61821700    3.09436100    4.43188200
 C                 -1.03975100    4.17834800    4.21118500
 C                 -1.50647100    3.25602000    3.23658900
 C                 -2.80425700    2.73182000    3.37084000
 C                  0.28574900    4.73967000    4.08051500
 C                  1.07379600    4.28401200    2.95974200
 C                  0.67638000    3.35123000    2.01263400
 C                 -0.67501200    2.83383400    2.08203100
 O                  0.80304500    5.59644600    4.86735500
 O                 -1.17748900    2.06559700    1.21723000
 O                  2.29929000    4.86911100    2.89478200
 H                 -1.49808100    5.25035800    6.01018900
 H                 -3.78986700    4.29403300    6.22733300
 H                 -4.61615100    2.67553500    4.51971300
 H                 -3.14078900    2.03426800    2.61286700
 H                  2.28847800    5.46078900    3.68048900
 C                  2.96744300    2.37593200    1.35964600
 C                  3.02815500    1.58332900    2.50660300
 C                  4.13005300    2.52790000    0.59596100
 C                  5.31920000    1.90291900    0.96298400
 C                  5.36703000    1.10947800    2.11019700
 C                  4.21599000    0.95425000    2.88015500
 H                  2.13931600    1.46935900    3.11639500
 H                  4.09220000    3.14121200   -0.29857200
 H                  6.21064400    2.03878900    0.35830900
 H                  4.24149900    0.34537700    3.77835900
 H                  6.29282000    0.62482200    2.40337100
 C                  1.67776100    3.05106000    0.88319200
 H                  1.99373600    4.03729500    0.52015100
 N                  1.16678800    2.34487400   -0.31809500
 C                  1.10656800    0.87934700   -0.24539400
 C                  0.38292100    0.32880800   -1.47399300
 C                  0.32391600   -1.20212300   -1.49923500
 C                 -0.41005000   -1.76763400   -2.72058200
 C                 -0.47325800   -3.29907900   -2.74847400
 C                 -1.20813200   -3.86550500   -3.96882900
 C                 -1.27150300   -5.39696600   -3.99567300
 C                 -2.00598500   -5.96329500   -5.21626900
 C                 -2.06884400   -7.49478600   -5.24256900
 C                 -2.80238200   -8.06130900   -6.46336300
 C                 -2.86577800   -9.59272600   -6.49013600
 C                 -3.60025200  -10.14901100   -7.71374700
 H                  0.20799700    2.65764500   -0.44137100
 H                  0.58413900    0.52897600    0.65510900
 H                  2.12801300    0.48653900   -0.21981000
 H                  0.88277300    0.69864200   -2.37823100
 H                 -0.63795300    0.72999200   -1.48688400
 H                 -0.16898400   -1.55873100   -0.58610900
 H                  1.34466400   -1.60709500   -1.47359000
 H                  0.08037200   -1.40970200   -3.63579800
 H                 -1.43038300   -1.36347900   -2.74556800
 H                 -0.96401900   -3.65604800   -1.83361600
 H                  0.54730600   -3.70368800   -2.72173900
 H                 -0.71770600   -3.50828400   -4.88409600
 H                 -2.22856800   -3.46130400   -3.99516000
 H                 -1.76252200   -5.75392900   -3.08092500
 H                 -0.25104300   -5.80136800   -3.96850900
 H                 -1.51514600   -5.60617600   -6.13119300
 H                 -3.02647400   -5.55934200   -5.24320400
 H                 -2.56036400   -7.85178200   -4.32808900
 H                 -1.04831500   -7.89882000   -5.21486000
 H                 -2.31123000   -7.70518900   -7.37864200
 H                 -3.82329300   -7.65808700   -6.49177300
 H                 -3.35741100   -9.94895100   -5.57654400
 H                 -1.84604800   -9.99613700   -6.46224400
 H                 -4.63423100   -9.79107100   -7.75047700
 H                 -3.62785800  -11.24258600   -7.70258400
 H                 -3.11156700   -9.83855700   -8.64297900


