%chk=182.chk
%nproc=8
%mem=30GB
#P UB3LYP/6-311++G(d,p) nosym opt freq

Oxidized

0 1
C     6.6354263629   -0.0843590337    0.6878799152
C     5.1877647450    0.0974427366    0.4125929064
C     4.7443915434    0.9248137560   -0.6020337461
C     3.4023566906    1.1014578610   -0.8675381682
C     2.4296518223    0.4437949398   -0.1129726461
N     1.0328147834    0.6946076651   -0.3851858268
C     0.1217685331   -0.3604890333   -0.2971737871
C     0.5772094117   -1.6625900093   -0.4124764834
C    -0.2482478120   -2.7371120053   -0.4163905838
C    -1.5917000867   -2.5387463910   -0.3033234091
O    -2.4417289383   -3.6289938480   -0.3071323605
C    -2.0830779305   -1.2398242974   -0.1859616248
C    -3.5252979149   -1.0780971538   -0.0572081985
O    -4.2612236124   -2.0920097741   -0.0665264300
C    -4.0796677064    0.2375767210    0.0780435142
C    -5.4462613379    0.4049185952    0.2009218564
C    -6.0057027488    1.6529115165    0.3322307226
C    -5.1841045734    2.7563946194    0.3410511219
C    -3.8217882611    2.6210366564    0.2207074008
C    -3.2866606156    1.3468867680    0.0895750794
C    -1.8171740578    1.1815143617   -0.0418766314
O    -1.1030787442    2.2005432176   -0.0274167888
C    -1.2504408087   -0.1484565560   -0.1804539845
C     2.8729749757   -0.3760022234    0.8936714210
C     4.2240423334   -0.5502178027    1.1560570218
H     6.8904449829   -1.1313321163    0.9246997850
H     7.1870020642    0.2367797640   -0.2267393536
H     6.9740710769    0.6008526027    1.4979277397
H     5.4964927926    1.4417313697   -1.1956002176
H     3.0408927352    1.7440129434   -1.6561761816
H     0.7402659364    1.6484357813   -0.6672775011
H     1.6566674429   -1.8112090144   -0.5342870740
H     0.1989362595   -3.7255307608   -0.5106123120
H    -2.0477370416   -4.5473225059   -0.3935954647
H    -6.0776832975   -0.4781547522    0.1917351727
H    -7.0883305723    1.7509624357    0.4272093376
H    -5.6300837935    3.7241703281    0.4438728245
H    -3.1655204070    3.4775311261    0.2260402212
H     2.1615492065   -0.9030581598    1.5279155970
H     4.5807865619   -1.1948703280    1.9470970211


