%chk=275.chk
%nproc=8
%mem=30GB
#P UB3LYP/6-311++G(d,p) nosym opt freq

Oxidized

0 1
  C    0.3166262   -0.3859426   -0.0950928
  C   -0.2152303   -1.5703441   -0.4971293
  C   -1.6773522   -1.8015834   -0.5313253
  O   -2.1016477   -2.8860373   -0.9021811
  C   -2.6116628   -0.7315415   -0.1199735
  C   -4.0037503   -0.9313264   -0.1420703
  C   -4.8679930    0.0930160    0.2513642
  C   -4.3530330    1.3212723    0.6685002
  C   -2.9718577    1.5299422    0.6938279
  C   -2.0908155    0.5054671    0.3000487
  C   -0.6191894    0.7092876    0.3215082
  O   -0.1681327    1.7855744    0.6863839
  H    0.3810148   -2.4077146   -0.8143336
  H   -4.4225279   -1.8771408   -0.4623712
  H   -5.9385134   -0.0657666    0.2329146
  H   -5.0250752    2.1132569    0.9729631
  H   -2.5940186    2.4904461    1.0210902
  N    1.7370809   -0.1127970   -0.0436260
  C    2.7787676   -0.9495998   -0.3507341
  N    4.0593255   -0.4916409   -0.2319851
  C    5.2296939   -1.2951702   -0.5277130
  O    2.5836804   -2.0942380   -0.7248543
  H    2.0023115    0.8333047    0.2678313
  H    4.2241932    0.4759008    0.0847211
  H    4.9693179   -2.3217753   -0.8606189
  H    5.8606801   -1.3726166    0.3822522
  H    5.8174533   -0.8053799   -1.3318836








