%chk=154-PCM.chk
%nproc=8
%mem=30GB
#P UB3LYP/6-311++G(d,p) SCRF=(PCM,Solvent=n,n-DiMethylFormamide)

Quinone PCM in DMF 

0 1
C                 -4.4041840000     -0.3459880000      0.1959550000
C                 -2.9267290000     -0.6319200000      0.2406410000
C                 -2.4538140000     -1.9187660000      0.4308180000
C                 -1.0875500000     -2.2069810000      0.4788550000
C                 -0.1645370000     -1.1845970000      0.3316340000
C                  1.2835460000     -1.5447870000      0.3893280000
O                  1.6462460000     -2.6983560000      0.5634850000
C                  2.2723930000     -0.4452790000      0.2260120000
C                  3.6393880000     -0.7373630000      0.2731400000
C                  4.5749680000      0.2781940000      0.1214010000
C                  4.1504600000      1.5951400000     -0.0790200000
C                  2.7938930000      1.8926090000     -0.1269320000
C                  1.8445610000      0.8761590000      0.0250700000
C                  0.3941080000      1.2293190000     -0.0300110000
O                  0.0738920000      2.4101050000     -0.2106460000
C                 -0.5926740000      0.1546560000      0.1325500000
C                 -1.9919120000      0.4351160000      0.0882760000
N                 -2.4526780000      1.7012490000     -0.0881320000
H                 -4.7046740000      0.0925630000     -0.7634220000
H                 -4.7055510000      0.3537170000      0.9846380000
H                 -4.9798520000     -1.2621390000      0.3313740000
H                 -3.1705100000     -2.7255050000      0.5466080000
H                 -0.7300770000     -3.2169420000      0.6291490000
H                  3.9414050000     -1.7655800000      0.4293140000
H                  5.6340100000      0.0491710000      0.1583690000
H                  4.8809890000      2.3875220000     -0.1974330000
H                  2.4449990000      2.9057780000     -0.2808910000
H                 -3.4369510000      1.8820540000     -0.1669430000
H                 -1.7731650000      2.4408500000     -0.2217580000





