$molecule
-2 1
O                 -0.0170490000     -2.5770840000     -0.4867040000
C                 -0.0089410000     -1.3284580000     -0.1542900000
C                  1.2228720000     -0.6194840000      0.0918960000
C                  2.4511710000     -1.3525850000      0.0973480000
C                  3.6499260000     -0.7887220000      0.4735820000
C                  3.7195580000      0.5758080000      0.8651670000
C                  2.5571510000      1.3359570000      0.8053480000
C                  1.3322650000      0.7840680000      0.4087250000
S                  0.0115630000      1.9522440000      0.1592040000
O                  0.0125410000      2.4773590000     -1.3013390000
C                 -1.3224280000      0.8002560000      0.4129420000
C                 -2.5392200000      1.3669820000      0.8135220000
C                 -3.7106480000      0.6211010000      0.8769140000
C                 -3.6589620000     -0.7440880000      0.4848090000
C                 -2.4683940000     -1.3225030000      0.1047130000
C                 -1.2312040000     -0.6045280000      0.0956310000
H                  2.3806440000     -2.3958850000     -0.1923670000
H                  4.5543160000     -1.3958880000      0.4782340000
H                  4.6590180000      1.0206220000      1.1819400000
H                  2.5895790000      2.3964390000      1.0506480000
H                 -2.5579100000      2.4277400000      1.0590820000
H                 -4.6435760000      1.0773100000      1.1967580000
H                 -4.5707020000     -1.3401360000      0.4921140000
H                 -2.4115680000     -2.3665270000     -0.1854230000
$end

$rem
   BASIS  =  6-311++G(d,p)
   GUI  =  2
   JOB_TYPE  =  SP
   METHOD  =  B3LYP
   SCF_CONVERGENCE  = 8
   SOLVENT_METHOD = sm12
$end

$smx
   solvent dimethylformamide
   charges CM5
$end





