$molecule
-2 2
O                 -2.4962970000     -2.7906020000     -1.6617900000
S                 -2.9989010000     -2.3505740000     -0.3379530000
O                 -2.5734290000     -3.1546030000      0.8331650000
O                 -4.4844240000     -2.1363620000     -0.3524470000
C                 -2.3325420000     -0.6120180000     -0.0648510000
C                 -3.3466740000      0.3267470000      0.0545170000
C                 -3.0722040000      1.6888030000      0.2583800000
C                 -1.7691250000      2.1202670000      0.3411090000
C                 -0.6991810000      1.2076130000      0.2256850000
C                  0.6508790000      1.7816480000      0.3266600000
O                  0.8356240000      3.0226000000      0.5069970000
C                  1.7604350000      0.8570160000      0.2074830000
C                  3.0931020000      1.3312350000      0.2889570000
C                  4.1666090000      0.4717030000      0.1791260000
C                  3.9430880000     -0.9123920000     -0.0185340000
C                  2.6482650000     -1.3919840000     -0.0995950000
C                  1.5344790000     -0.5340840000      0.0090370000
C                  0.1813440000     -1.1234800000     -0.0867080000
O                  0.0549020000     -2.3458640000     -0.2475250000
C                 -0.9632460000     -0.1927470000      0.0212670000
H                 -4.3652320000     -0.0311790000     -0.0174780000
H                 -3.8949980000      2.3950900000      0.3478650000
H                 -1.5123330000      3.1617550000      0.4952880000
H                  3.2305820000      2.3963150000      0.4410640000
H                  5.1826370000      0.8548050000      0.2439750000
H                  4.7856280000     -1.5938550000     -0.1059810000
H                  2.4410150000     -2.4458560000     -0.2498510000
$end

$rem
   BASIS  =  6-311++G(d,p)
   GUI  =  2
   JOB_TYPE  =  SP
   METHOD  =  B3LYP
   SCF_CONVERGENCE  = 8
   SOLVENT_METHOD = sm12
$end

$smx
   solvent dimethylformamide
   charges CM5
$end





