%chk=228-an.chk
%nproc=8
%mem=30GB
#P UB3LYP/6-311++G(d,p) nosym opt freq

Reduced

-2 1
C                  5.7728360000     -5.1319120000      1.2397040000
C                  6.7792430000     -5.0524530000      0.3085090000
C                  6.6848560000     -4.0840370000     -0.7559060000
C                  4.6237300000     -4.2953650000      1.2083910000
C                  4.5293700000     -3.3180010000      0.1335180000
C                  5.5606340000     -3.2477510000     -0.8074310000
C                  3.6059860000     -4.4291140000      2.2128190000
C                  2.4917830000     -3.5222200000      2.0689480000
C                  2.3907410000     -2.5725570000      1.0319570000
C                  3.3902470000     -2.4160860000      0.0168490000
O                  3.6809100000     -5.2966920000      3.1742420000
O                  3.2828190000     -1.5437310000     -0.9221440000
C                  7.7110010000     -3.9875940000     -1.7236670000
N                  8.5760730000     -3.9330560000     -2.5079400000
H                  5.8190690000     -5.8519960000      2.0511100000
H                  7.6455520000     -5.7059600000      0.3590080000
H                  5.4576650000     -2.5078390000     -1.5949480000
C                  1.4105600000     -3.6508200000      3.1209720000
C                  1.2099490000     -1.6366010000      0.9097080000
H                  1.7122270000     -4.4448210000      3.8082720000
H                  0.4312770000     -3.9091140000      2.6898600000
H                  1.2672650000     -2.7220220000      3.6940540000
H                  0.4626800000     -1.7916630000      1.6923770000
H                  0.7241440000     -1.7509910000     -0.0696800000
H                  1.5390840000     -0.5881310000      0.9405770000





