%chk=000.chk
%nproc=8
%mem=30GB
#P UB3LYP/6-311++G(d,p) nosym opt freq

Oxidized

0 1
C                 -0.3000430000      1.1453250000     -0.2707540000
C                 -1.4039390000      0.2855180000     -0.7598580000
C                 -1.3552510000     -1.0503600000     -0.6760220000
C                 -0.1856410000     -1.7426170000     -0.0852770000
C                  0.9325230000     -0.9001620000      0.4111170000
C                  0.8904020000      0.4443030000      0.3300060000
O                 -0.3480580000      2.3551260000     -0.3481690000
O                 -0.1311690000     -2.9570220000     -0.0040300000
C                  1.9632970000      1.2588310000      0.8059460000
N                  2.8389110000      1.9025040000      1.1952550000
H                 -2.2480400000      0.8147650000     -1.1874750000
H                 -2.1571900000     -1.6880830000     -1.0306150000
H                  1.7773160000     -1.4274580000      0.8389170000


