%chk=269.chk
%nproc=8
%mem=30GB
#P UB3LYP/6-311++G(d,p) nosym opt freq

Oxidized

0 1
N    -3.3954500487   -0.8773195901    0.2327974365
C    -2.1054576607   -0.3289956955    0.1823046850
C    -1.9589143444    0.9673629495    0.4038115366
C    -0.6210756185    1.5550157946    0.3549444262
O    -0.4534000291    2.8027190664    0.5650085372
C     0.5767106321    0.7779820887    0.0712295542
C     1.8425064393    1.3571751769    0.0292694726
C     2.9774920916    0.6153229946   -0.2405858332
C     2.8162725673   -0.7365478466   -0.4705861402
C     1.5573317434   -1.3115713749   -0.4286653532
C     0.4233876382   -0.5728714880   -0.1595150070
C    -0.9100572675   -1.1471034355   -0.1086936347
O    -1.0679047065   -2.3791072568   -0.3170242048
H    -3.8766312618   -0.9440954173    1.1707266306
H    -3.9422669742   -1.2342191797   -0.5762526898
H    -2.8387823564    1.5799722933    0.6199352581
H     1.8917844691    2.4144568732    0.2181649316
H     3.9338110017    1.1136220832   -0.2611067362
H     3.7161572134   -1.2979054382   -0.6795929095
H     1.4344864716   -2.3538925978   -0.6061699599


