$molecule
-2 1
C                 -0.8823480000      3.8446880000     -0.1942380000
C                 -2.0327400000      3.0900680000     -0.0666780000
C                 -1.9480790000      1.6734900000      0.0017050000
C                  0.4034750000      3.2504170000     -0.2582410000
C                  0.4862990000      1.8084840000     -0.1782650000
C                 -0.7067100000      1.0636310000     -0.0552540000
C                  1.5756820000      4.0766600000     -0.4122050000
C                  2.8351840000      3.3884830000     -0.4785220000
C                  2.9146880000      1.9933930000     -0.3241790000
C                  1.7638940000      1.1394010000     -0.2180120000
O                  1.5331990000      5.3662290000     -0.5031080000
O                  1.9065390000     -0.1456560000     -0.1800650000
N                  3.9464460000      4.1939470000     -0.7610260000
H                 -0.9212600000      4.9279000000     -0.2542640000
H                 -3.0042740000      3.5794300000     -0.0205200000
H                 -2.8511880000      1.0745110000      0.0999740000
H                 -0.6078230000     -0.0163940000     -0.0031270000
H                  3.6701110000      5.1621730000     -0.6149500000
H                  4.7943630000      3.9082090000     -0.2778550000
N                  4.0975900000      1.2042580000     -0.3925360000
H                  3.7772120000      0.2342880000     -0.4975240000
C                  5.3724480000      1.3864840000      0.0056140000
C                  6.2489300000      0.1346840000     -0.0881280000
C                  7.4964060000      0.3508450000     -0.9546450000
O                  5.8691080000      2.4420940000      0.4355550000
H                  5.6742410000     -0.7196880000     -0.4588830000
H                  6.5665970000     -0.1054210000      0.9355380000
H                  7.2213460000      0.5395320000     -1.9976530000
H                  8.1542410000     -0.5261270000     -0.9332100000
H                  8.0613560000      1.2136080000     -0.5932170000
$end

$rem
   BASIS  =  6-311++G(d,p)
   GUI  =  2
   JOB_TYPE  =  SP
   METHOD  =  B3LYP
   SCF_CONVERGENCE  = 8
   SOLVENT_METHOD = sm12
$end

$smx
   solvent dimethylformamide
   charges CM5
$end





