%chk=083-an-PCM.chk
%nproc=8
%mem=30GB
#P UB3LYP/6-311++G(d,p) SCRF=(PCM,Solvent=n,n-DiMethylFormamide)

Reduced 

-2 1
C                  1.6782440000      0.9249320000     -0.6743680000
C                  0.6226150000      1.5665640000      0.0464740000
C                 -0.5309910000      0.9137550000      0.4756560000
C                 -0.7764790000     -0.4766100000      0.2432490000
C                  0.2851340000     -1.1590550000     -0.4567230000
C                  1.4382700000     -0.4836150000     -0.8832860000
O                  2.7310050000      1.5497260000     -1.1074940000
O                 -1.8573360000     -1.0815540000      0.6364230000
C                  0.1086000000     -2.6346710000     -0.7119780000
O                  2.3647550000     -1.2222900000     -1.6380100000
C                  3.6768620000     -1.2582470000     -1.0926170000
H                  0.7500360000      2.6338950000      0.2316010000
H                 -1.3028550000      1.4640080000      1.0152570000
H                 -0.4743460000     -3.0709940000      0.1068800000
H                  1.0704850000     -3.1470860000     -0.8161610000
H                 -0.4635340000     -2.8318790000     -1.6332460000
H                  4.3014840000     -1.8300140000     -1.7907600000
H                  3.6828860000     -1.7806420000     -0.1198330000
H                  4.0652750000     -0.2429120000     -0.9732560000





