$molecule
0 1
C                 -1.5293270000      1.9071560000     -4.7759520000
C                 -1.4930020000      0.5391210000     -5.0131610000
C                 -1.2542480000     -0.3483120000     -3.9595670000
C                 -1.3282920000      2.3978200000     -3.4809590000
C                 -1.0883730000      1.5087030000     -2.4226430000
C                 -1.0514590000      0.1334050000     -2.6719890000
C                 -1.3731800000      3.8568350000     -3.2402090000
C                 -0.8559030000      1.9950130000     -1.0299360000
C                 -1.1777770000      4.3568190000     -1.8740110000
C                 -0.9227480000      3.4681050000     -0.7880400000
C                 -1.2594820000      5.7516370000     -1.6460830000
C                 -1.0993420000      6.2520030000     -0.3435620000
C                 -0.8552270000      5.3885600000      0.7003710000
C                 -0.7611500000      4.0078960000      0.4888390000
O                 -1.5820510000      4.6336820000     -4.1848730000
O                 -0.6244370000      1.1933500000     -0.1386210000
H                 -1.7111350000      2.6132610000     -5.5761560000
H                 -1.6491160000      0.1601500000     -6.0166260000
H                 -1.2252640000     -1.4156470000     -4.1469650000
H                 -0.8605000000     -0.5367250000     -1.8435010000
H                 -0.7292760000      5.7598820000      1.7101800000
O                 -1.4906160000      6.6361200000     -2.6205280000
O                 -0.5828470000      3.2279980000      1.6172580000
C                  0.6525150000      2.6454860000      1.8318760000
C                  0.5687540000      1.6717420000      2.9686740000
O                  1.6211470000      2.9202120000      1.1833900000
H                 -1.1693590000      7.3216650000     -0.1902980000
H                 -1.5790240000      6.1233420000     -3.4631470000
H                  0.0378720000      0.7852200000      2.6129930000
H                  0.0017860000      2.0924890000      3.8004630000
H                  1.5719170000      1.3959120000      3.2871220000
$end

$rem
   BASIS  =  6-311++G(d,p)
   GUI  =  2
   JOB_TYPE  =  SP
   METHOD  =  B3LYP
   SCF_CONVERGENCE  = 8
   SOLVENT_METHOD = sm12
$end

$smx
   solvent dimethylformamide
   charges CM5
$end





