%chk=201-rad.chk
%nproc=8
%mem=30GB
#P UB3LYP/6-311++G(d,p) nosym opt freq

Radical

-1 2
O    -2.8203173209    2.4550898986   -0.4450885152
C    -2.6438533949    1.1193935817   -0.2099788489
C    -3.8311356805    0.3741681804   -0.0855073670
C    -3.7326751664   -0.9632889340    0.1495010610
C    -2.5072322467   -1.5716497534    0.2625537285
C    -1.3403040325   -0.8487221102    0.1418868028
C    -0.0555346308   -1.5188045628    0.2660428209
O     0.0054063573   -2.7655303952    0.4849519002
C     1.1955864758   -0.7645093590    0.1402855217
C     2.4141750210   -1.4023871250    0.2584115971
O     2.3981302548   -2.7745724936    0.4989237269
C     3.5812165318   -0.6855225321    0.1387431999
C     3.5603633506    0.6580609218   -0.0969354724
C     2.3094109211    1.3096976097   -0.2176408270
O     2.3320079895    2.6304808421   -0.4490957104
C     1.1253571929    0.6051147662   -0.1002151209
C    -0.1807522154    1.2492739694   -0.2199346303
O    -0.2499401887    2.4695243042   -0.4342405779
C    -1.4209083812    0.5062572267   -0.0961007653
H    -2.2260638216    3.2004781867   -0.5726915444
H    -4.8101167457    0.8668327281   -0.1769988848
H    -4.6434952404   -1.5618215907    0.2496897206
H    -2.4046692291   -2.6415759377    0.4506675513
H     3.3014615290   -3.2439950865    0.5858679091
H     4.5127571750   -1.2409630815    0.2409400055
H     4.4649596455    1.2391213006   -0.1941493600
H     1.6661658505    3.2998494458   -0.5698879212


