$molecule
-1 2
C                  4.8659730000     -2.8833960000     -0.3372820000
C                  5.5988320000     -2.0001230000     -1.1023230000
C                  5.0184420000     -0.7862430000     -1.5337810000
C                  3.5294150000     -2.5963530000      0.0290200000
C                  2.9425220000     -1.3702480000     -0.4065440000
C                  3.7149360000     -0.4864420000     -1.1873030000
C                  2.7824440000     -3.5393290000      0.8319380000
C                  1.4211280000     -3.1894880000      1.1740830000
C                  0.8161810000     -1.9698110000      0.7490380000
C                  1.5606450000     -1.0042900000     -0.0652400000
C                  0.6600540000     -4.0904130000      1.9599240000
C                 -0.6519920000     -3.7916600000      2.3105390000
C                 -0.5130940000     -1.6984180000      1.1211710000
C                 -1.2406480000     -2.5926120000      1.8903050000
O                  3.2968080000     -4.6494020000      1.2327530000
O                  1.0515580000      0.0721830000     -0.4500900000
O                  1.1748410000     -5.2690100000      2.3978460000
H                  5.2897550000     -3.8201790000      0.0050430000
H                  6.6233340000     -2.2368300000     -1.3740680000
H                  5.5969020000     -0.0921640000     -2.1359010000
H                  3.2437510000      0.4370590000     -1.5038720000
H                  2.1270180000     -5.2687980000      2.0256390000
O                 -1.3632390000     -4.6877320000      3.0743380000
H                 -0.9500150000     -0.7658000000      0.7862300000
H                 -2.2657050000     -2.3861300000      2.1788530000
H                 -0.7616070000     -5.4279390000      3.2407510000
$end
$rem
   MAX_SCF_CYCLES=200
   BASIS  =  6-311++G(d,p)
   GUI  =  2
   JOB_TYPE  =  SP
   METHOD  =  B3LYP
   SOLVENT_METHOD = PCM
$end
$pcm
   theory = CPCM
$end
$solvent
   dielectric 37.219
   opticaldielectric 1.43
$end






