$molecule
-1 2
C                 -0.2202380000      3.9251660000      0.2655160000
C                 -1.4322000000      3.4443190000      0.7284950000
C                 -1.6697640000      2.0564630000      0.7623360000
C                  0.7884690000      3.0451750000     -0.1737440000
C                  0.5490210000      1.6506250000     -0.1420690000
C                 -0.6913990000      1.1784800000      0.3310740000
C                  2.0605060000      3.5954620000     -0.6750570000
C                  3.0596270000      2.6195680000     -1.0695960000
C                  2.8364890000      1.2416930000     -1.0408230000
C                  1.5697730000      0.6934770000     -0.5932950000
O                  2.2392700000      4.8380590000     -0.7424640000
O                  1.3444630000     -0.5479050000     -0.5721450000
H                 -0.0096190000      4.9875590000      0.2239360000
H                 -2.1997620000      4.1351990000      1.0651770000
H                 -2.6209700000      1.6772220000      1.1246380000
H                 -0.8458850000      0.1057020000      0.3426010000
S                  4.6089080000      3.2357730000     -1.7395650000
C                  5.1878710000      4.3976580000     -0.4452250000
C                  3.8771120000      0.2416080000     -1.4757990000
H                  6.1354710000      4.8048170000     -0.8058710000
H                  5.3572010000      3.8683050000      0.4944080000
H                  4.4519270000      5.1874860000     -0.3127520000
H                  3.9576240000      0.1934430000     -2.5695180000
H                  3.5888810000     -0.7487450000     -1.1226170000
H                  4.8673850000      0.5105940000     -1.1004120000
$end
$rem
   MAX_SCF_CYCLES=200
   BASIS  =  6-311++G(d,p)
   GUI  =  2
   JOB_TYPE  =  SP
   METHOD  =  B3LYP
   SOLVENT_METHOD = PCM
$end
$pcm
   theory = CPCM
$end
$solvent
   dielectric 37.219
   opticaldielectric 1.43
$end






