$molecule
-2 1
C                 -1.5931220000     -1.3869650000     -0.1672470000
C                 -0.2560350000     -0.6836090000     -0.1104480000
C                 -0.1838650000      0.7005030000      0.1430990000
C                 -1.4401100000      1.5035810000      0.3936600000
C                  1.0685770000      1.4160150000      0.2103640000
O                  1.1511570000      2.6875830000      0.4856530000
C                  2.2173540000      0.5999570000     -0.0325960000
C                  2.1453240000     -0.7677160000     -0.2931360000
C                  0.9143140000     -1.4922840000     -0.3584690000
O                  0.8579340000     -2.7649040000     -0.6355780000
H                 -1.4185910000     -2.4657550000     -0.1445300000
H                 -2.1544400000     -1.1693390000     -1.0995720000
H                 -2.2557630000     -1.1005300000      0.6579250000
H                 -1.8706250000      1.3256710000      1.4009700000
H                 -2.2384040000      1.2719150000     -0.3211900000
H                 -1.1894090000      2.5660070000      0.3373030000
H                  3.1881350000      1.0968840000      0.0147910000
H                  3.0575680000     -1.3370150000     -0.4810000000
$end

$rem
   Scf_algorithm RCA_DIIS
   BASIS  =  6-311++G(d,p)
   GUI  =  2
   JOB_TYPE  =  SP
   METHOD  =  B3LYP
   SCF_CONVERGENCE  = 6
   SOLVENT_METHOD = sm12
$end

$smx
   solvent dimethylformamide
   charges CM5
$end





