%chk=249-rad.chk
%nproc=8
%mem=30GB
#P UB3LYP/6-311++G(d,p) nosym  opt freq SCRF=(PCM,Solvent=n,n-DiMethylFormamide)

Radical

-1 2
C                  5.7529790000     -5.7076820000      0.4541040000
C                  5.8532890000     -5.8847270000     -0.9144900000
C                  5.1313530000     -5.0454490000     -1.7863270000
C                  4.9361030000     -4.6961520000      0.9977710000
C                  4.2098620000     -3.8520170000      0.1201470000
C                  4.3240920000     -4.0470970000     -1.2707530000
C                  4.8498280000     -4.5321310000      2.4568700000
C                  3.9884970000     -3.4720250000      2.9442090000
C                  3.2836420000     -2.6391250000      2.0811880000
C                  3.3452010000     -2.7846550000      0.6418860000
O                  5.5013730000     -5.2874720000      3.2319060000
O                  2.6908620000     -2.0343320000     -0.1365700000
H                  6.4873520000     -6.6693090000     -1.3176270000
C                  2.3849900000     -1.5343960000      2.5901470000
H                  5.2093430000     -5.1833240000     -2.8610610000
C                  3.9076440000     -3.3131440000      4.4453070000
C                  0.9036940000     -1.9503370000      2.6835730000
C                 -0.0144180000     -0.8148680000      3.1492110000
C                 -1.4923410000     -1.2132660000      3.2358550000
H                  6.2965310000     -6.3376110000      1.1490040000
H                  3.7560330000     -3.3865340000     -1.9159640000
H                  2.4534680000     -0.6941860000      1.8920280000
H                  2.7228180000     -1.1828680000      3.5706260000
H                  4.4365940000     -4.1409200000      4.9182920000
H                  2.8725610000     -3.3008890000      4.8039250000
H                  4.3743070000     -2.3777870000      4.7811750000
H                  0.8056680000     -2.8034840000      3.3670020000
H                  0.5857560000     -2.2981270000      1.6956170000
H                  0.0904940000      0.0341400000      2.4609460000
H                  0.3195600000     -0.4536040000      4.1320950000
H                 -1.5979160000     -2.0641280000      3.9221220000
H                 -1.8245660000     -1.5737570000      2.2537590000
C                 -2.4145640000     -0.0779320000      3.6955000000
C                 -3.8922850000     -0.4772660000      3.7806150000
C                 -4.8144700000      0.6584520000      4.2389650000
C                 -6.2918200000      0.2587160000      4.3237480000
C                 -7.2145690000      1.3938480000      4.7820850000
C                 -8.6883460000      0.9841560000      4.8633890000
H                 -2.3095170000      0.7722670000      3.0086170000
H                 -2.0813900000      0.2836670000      4.6775840000
H                 -3.9976700000     -1.3274750000      4.4674030000
H                 -4.2251760000     -0.8388900000      2.7989240000
H                 -4.7093690000      1.5084200000      3.5518760000
H                 -4.4815140000      1.0203290000      5.2207840000
H                 -6.3981290000     -0.5913150000      5.0107570000
H                 -6.6258980000     -0.1027470000      3.3421990000
H                 -7.1095450000      2.2429590000      4.0954910000
H                 -6.8818010000      1.7548700000      5.7631250000
H                 -9.0599380000      0.6508630000      3.8889480000
H                 -9.3192010000      1.8152600000      5.1927450000
H                 -8.8306420000      0.1591090000      5.5689420000


