$molecule
0 1
O                  1.5152390000     -3.0271490000      0.0814600000
C                  1.3033730000     -1.8252150000      0.0436020000
C                  2.4168630000     -0.8482070000     -0.0072290000
C                  3.7398600000     -1.3009190000     -0.0115660000
C                  4.7851530000     -0.3869550000     -0.0592270000
C                  4.5129650000      0.9835660000     -0.1028330000
C                  3.1990920000      1.4373160000     -0.0986880000
C                  2.1405870000      0.5240620000     -0.0507530000
C                  0.7374630000      1.0506870000     -0.0476370000
O                  0.5700650000      2.2608490000     -0.0885850000
C                 -0.3950640000      0.0706920000      0.0036300000
C                 -1.7773950000      0.4909910000      0.0102350000
C                 -2.2084370000      1.8481510000     -0.0293330000
C                 -3.5465350000      2.1711030000     -0.0199380000
C                 -4.5403350000      1.1714600000      0.0290810000
C                 -4.1670360000     -0.1484160000      0.0682740000
C                 -2.7980230000     -0.5191590000      0.0601690000
C                 -2.4353430000     -1.8883940000      0.1014710000
C                 -1.1225280000     -2.2680610000      0.0948260000
C                 -0.0978470000     -1.2955820000      0.0461120000
H                  3.9222820000     -2.3677710000      0.0227870000
H                  5.8111910000     -0.7367940000     -0.0626130000
H                  5.3289110000      1.6964860000     -0.1400570000
H                  2.9694680000      2.4946230000     -0.1320580000
H                 -1.4687280000      2.6296370000     -0.0671460000
H                 -3.8387050000      3.2148550000     -0.0509210000
H                 -5.5889430000      1.4464150000      0.0356420000
H                 -4.9143800000     -0.9337310000      0.1063080000
H                 -3.2219080000     -2.6349020000      0.1387660000
H                 -0.8313090000     -3.3096380000      0.1262240000
$end

$rem
   BASIS  =  6-311++G(d,p)
   GUI  =  2
   JOB_TYPE  =  SP
   METHOD  =  B3LYP
   SCF_CONVERGENCE  = 8
   SOLVENT_METHOD = sm12
$end

$smx
   solvent dimethylformamide
   charges CM5
$end





