$molecule
-2 1
C                 -1.0551280000      2.6136910000      0.6237490000
C                  0.2670920000      2.7303410000      0.0590650000
C                  0.9253500000      1.6548030000     -0.5511250000
C                  0.3340140000      0.3430620000     -0.6398980000
C                 -0.9815020000      0.2286240000     -0.0611140000
C                 -1.6417920000      1.3020160000      0.5291140000
O                 -1.6830220000      3.6117340000      1.1517980000
O                  0.9296400000     -0.6701250000     -1.1801390000
O                 -2.9491070000      1.1048980000      0.9771790000
O                 -1.6029870000     -1.0207480000     -0.0238200000
C                 -3.1226150000      1.3160920000      2.3686860000
C                 -1.8852080000     -1.5662070000     -1.3014500000
C                  2.3120180000      1.8063490000     -1.1329660000
C                  0.8779600000      4.1217020000      0.1062480000
C                  1.7194910000      4.3754080000      1.3336470000
C                  2.9467020000      4.9106750000      1.4336560000
C                  3.7849560000      5.3743550000      0.2665180000
C                  3.6277700000      5.0752430000      2.7741120000
H                 -2.8045730000      2.3258920000      2.6449760000
H                 -2.5582430000      0.5695860000      2.9504360000
H                 -4.1922770000      1.1881560000      2.5757430000
H                 -2.3041760000     -2.5657970000     -1.1319040000
H                 -0.9693710000     -1.6376760000     -1.8961910000
H                 -2.6347250000     -0.9547830000     -1.8301300000
H                  3.0127210000      2.2692010000     -0.4252660000
H                  2.3205050000      2.4299790000     -2.0402640000
H                  2.6801120000      0.8147020000     -1.4063300000
H                  0.0316210000      4.8212130000      0.1475670000
H                  1.4486690000      4.3286770000     -0.8047870000
H                  1.2253210000      4.0798280000      2.2577590000
H                  3.2920930000      5.2207630000     -0.6939310000
H                  4.7481520000      4.8429040000      0.2424190000
H                  4.0287160000      6.4424270000      0.3569090000
H                  2.9916340000      4.7390380000      3.5973900000
H                  3.9028740000      6.1228730000      2.9632930000
H                  4.5690320000      4.5050520000      2.8187150000
$end
$rem
   MAX_SCF_CYCLES=200
   BASIS  =  6-311++G(d,p)
   GUI  =  2
   JOB_TYPE  =  SP
   METHOD  =  B3LYP
   SOLVENT_METHOD = COSMO
$end
$solvent
   dielectric 37.219
   opticaldielectric 1.43
$end





