$molecule
0 1
N                 -4.6815940000      0.3903010000      0.3318700000
C                 -3.7041570000     -0.1485860000      0.6343970000
C                 -2.4970910000     -0.8079750000      1.0029970000
C                 -2.6259500000     -1.8998350000      1.9079670000
N                 -2.7257450000     -2.7872720000      2.6426990000
C                 -1.2656700000     -0.4094410000      0.5084000000
C                 -1.1526890000      0.7017260000     -0.4098970000
C                  0.0494580000      1.0905590000     -0.8928770000
C                  1.2655830000      0.4094150000     -0.5084400000
C                  1.1526420000     -0.7015170000      0.4100450000
C                 -0.0494770000     -1.0904270000      0.8930040000
C                  2.4970210000      0.8078750000     -1.0030090000
C                  3.7041120000      0.1484180000     -0.6345700000
N                  4.6815740000     -0.3905130000     -0.3321430000
C                  2.6260050000      1.8996520000     -1.9080990000
N                  2.7259140000      2.7868420000     -2.6429930000
H                 -2.0528800000      1.2245890000     -0.7093420000
H                  0.1141190000      1.9255000000     -1.5799680000
H                  2.0529570000     -1.2240580000      0.7097360000
H                 -0.1141320000     -1.9252510000      1.5802240000
$end

$rem
   BASIS  =  6-311++G(d,p)
   GUI  =  2
   JOB_TYPE  =  SP
   METHOD  =  B3LYP
   SCF_CONVERGENCE  = 8
   SOLVENT_METHOD = sm12
$end

$smx
   solvent dimethylformamide
   charges CM5
$end





