%chk=288.chk
%nproc=8
%mem=30GB
#P UB3LYP/6-311++G(d,p) nosym opt freq

Oxidized

0 1
C                 -2.03544400    3.01022800    0.53225800
 C                 -2.76471600    2.31990900    1.49546900
 C                 -2.30861200    1.08674500    1.96487500
 C                 -0.84795200    2.46381100    0.03957700
 C                 -0.38659800    1.22330600    0.50965400
 C                 -1.12446900    0.53946400    1.47424800
 C                 -0.06410500    3.18227500   -0.98149500
 C                  1.19843500    2.55715800   -1.47017100
 C                  1.65895800    1.35687700   -1.03937300
 C                  0.88887700    0.62373600   -0.01276200
 O                 -0.38547400    4.26585600   -1.45658500
 O                  1.27472900   -0.45772600    0.40885500
 H                 -2.36899000    3.96812500    0.15231000
 H                 -3.68641200    2.74039500    1.88066000
 H                 -2.87817600    0.55051500    2.71546100
 H                 -0.75660300   -0.41591500    1.82727300
 C                  2.94173900    0.75705000   -1.54240700
 O                  1.84693800    3.28844400   -2.39134000
 H                  3.11612400    1.09304800   -2.56779700
 H                  2.83480800   -0.33043700   -1.55315300
 H                  1.30400500    4.08720300   -2.53309200
 C                  4.15927800    1.13131400   -0.66987800
 C                  5.46267200    0.51095900   -1.18330800
 C                  6.68483600    0.87662100   -0.33349300
 H                  3.97600800    0.80123100    0.35813800
 H                  4.25834800    2.22234900   -0.64117500
 H                  5.63289400    0.83114300   -2.21935600
 H                  5.35534300   -0.58072400   -1.21391300
 H                  6.51376900    0.55587900    0.70212900
 H                  6.78856000    1.96891800   -0.30035000
 C                  7.99253300    0.26060300   -0.84382300
 C                  9.21552000    0.62635100    0.00484600
 C                 10.52369900    0.01027500   -0.50397200
 C                 11.74689400    0.37737500    0.34391000
 C                 13.05527200   -0.23842500   -0.16416500
 C                 14.27919500    0.12900100    0.68258000
 C                 15.58141200   -0.49073100    0.16710700
 H                  8.16272100    0.58044800   -1.88007700
 H                  7.88873200   -0.83168700   -0.87674500
 H                  9.04473300    0.30715600    1.04119800
 H                  9.31916200    1.71876600    0.03750900
 H                 10.69394700    0.32853500   -1.54073600
 H                 10.42044900   -1.08216900   -0.53561900
 H                 11.57657000    0.05933900    1.38075100
 H                 11.85009200    1.46989400    0.37535900
 H                 13.22640600    0.07886900   -1.20126100
 H                 12.95350000   -1.33121600   -0.19504200
 H                 14.10907400   -0.18850700    1.71864700
 H                 14.38167800    1.22068600    0.71308200
 H                 15.52281000   -1.58381800    0.15802600
 H                 16.43361000   -0.20956600    0.79223200
 H                 15.79752100   -0.16394800   -0.85508500


