%chk=189-an.chk
%nproc=8
%mem=30GB
#P UB3LYP/6-311++G(d,p) nosym opt freq

Reduced

-2 1
O                 -4.9048290000      1.1586620000      0.2507000000
C                 -3.6765580000      0.4980440000      0.1544930000
C                 -3.6413680000     -0.9176560000      0.0646620000
C                 -2.4172900000     -1.5517130000     -0.0377330000
C                 -1.1982630000     -0.8430180000     -0.0193800000
C                  0.0534320000     -1.5816800000     -0.1080620000
O                  0.0962970000     -2.8509690000     -0.1948960000
C                  1.2522670000     -0.7554700000     -0.0897160000
C                  2.5162200000     -1.3765690000     -0.1623720000
C                  3.6944430000     -0.6536890000     -0.1720610000
C                  3.6340270000      0.7602370000     -0.0685110000
O                  4.8146510000      1.5088400000     -0.0687460000
C                  2.4265080000      1.4039140000      0.0320880000
C                  1.1998350000      0.6836350000      0.0065110000
C                 -0.0478480000      1.4165450000      0.0970760000
O                 -0.0909320000      2.6926920000      0.1843890000
C                 -1.2430890000      0.5960460000      0.0812920000
C                 -2.5154760000      1.2290740000      0.1480940000
H                 -5.5809410000      0.5846770000     -0.1368360000
H                 -4.5685330000     -1.4871670000      0.0927560000
H                 -2.3539570000     -2.6324250000     -0.1142790000
H                  2.5260200000     -2.4594490000     -0.2337390000
H                  4.6576270000     -1.1504980000     -0.2731960000
H                  5.5297700000      0.9341780000      0.2396770000
H                  2.3757910000      2.4821300000      0.1305970000
H                 -2.5378030000      2.3116270000      0.1971920000


