$molecule
-2 1
N                 -3.4330760000      1.6096380000      0.6423390000
C                 -2.8512930000      0.3416850000      0.3674620000
C                 -3.6698940000     -0.7664150000      0.3016760000
C                 -3.1407720000     -2.0562210000      0.0600430000
C                 -1.7816900000     -2.2618570000     -0.0540180000
N                 -1.3061570000     -3.5736720000     -0.3263120000
C                 -0.8652770000     -1.1436600000      0.0548150000
C                  0.5598050000     -1.3542440000      0.0400960000
O                  1.0644300000     -2.5749740000     -0.0182300000
C                  1.4208430000     -0.2003750000      0.0904120000
C                  2.8620250000     -0.3514930000      0.1382010000
N                  3.4585230000     -1.6333300000      0.2867760000
C                  3.6763830000      0.7605090000      0.0865970000
C                  3.1342060000      2.0621380000     -0.0311660000
C                  1.7709690000      2.2715230000     -0.0335970000
N                  1.2799520000      3.5972060000     -0.1854430000
C                  0.8621350000      1.1464620000      0.0677370000
C                 -0.5597350000      1.3542250000      0.1702040000
O                 -1.0641170000      2.5748610000      0.2301650000
C                 -1.4176900000      0.1974790000      0.2062670000
H                 -2.7125480000      2.3295590000      0.4656100000
H                 -4.2736130000      1.7531860000      0.0955320000
H                 -4.7408550000     -0.6377080000      0.4529200000
H                 -3.8117330000     -2.9068740000     -0.0522380000
H                 -1.7784790000     -4.2613130000      0.2482520000
H                 -0.2817770000     -3.5704410000     -0.1871570000
H                  4.2587470000     -1.7384590000     -0.3252940000
H                  2.7255640000     -2.3416440000      0.1142410000
H                  4.7551690000      0.6247670000      0.1515620000
H                  3.7973730000      2.9198660000     -0.1357380000
H                  0.2683860000      3.5823510000      0.0274020000
H                  1.7941980000      4.2472280000      0.3968930000
$end
$rem
   MAX_SCF_CYCLES=200
   BASIS  =  6-311++G(d,p)
   GUI  =  2
   JOB_TYPE  =  SP
   METHOD  =  B3LYP
   SOLVENT_METHOD = PCM
$end
$pcm
   theory = CPCM
$end
$solvent
   dielectric 37.219
   opticaldielectric 1.43
$end





