$molecule
-2 1
O                 -1.2737810000      2.5864140000      0.3420740000
C                 -1.2420620000      1.3010460000      0.2201600000
C                 -2.4105110000      0.4863270000      0.1943640000
C                 -2.3509850000     -0.9035010000      0.0618090000
O                 -3.4939810000     -1.6871740000      0.0377370000
C                 -1.1624450000     -1.6624490000     -0.0601670000
O                 -1.2776810000     -2.9774100000     -0.1780190000
C                  0.0384730000     -0.9017420000     -0.0405930000
C                  1.3118080000     -1.5330020000     -0.1543930000
C                  2.4917350000     -0.8177570000     -0.1380840000
C                  2.4653820000      0.5995150000     -0.0040620000
C                  1.2403680000      1.2428010000      0.1086210000
C                  0.0121430000      0.5541690000      0.0966770000
H                 -3.3790600000      0.9751300000      0.2816810000
H                  1.3137120000     -2.6149100000     -0.2558660000
H                  3.4455990000     -1.3384900000     -0.2276540000
H                  3.3938350000      1.1687620000      0.0094880000
H                  1.1806530000      2.3232790000      0.2122870000
H                 -3.0537260000     -2.5738760000     -0.0642350000
$end
$rem
   MAX_SCF_CYCLES=200
   BASIS  =  6-311++G(d,p)
   GUI  =  2
   JOB_TYPE  =  SP
   METHOD  =  B3LYP
   SOLVENT_METHOD = COSMO
$end
$solvent
   dielectric 37.219
   opticaldielectric 1.43
$end





