$molecule
0 1
O                 -2.7783760000      2.4948630000     -0.4519320000
C                 -2.6658970000      1.1804040000     -0.2208320000
C                 -3.8482670000      0.4371270000     -0.0967890000
C                 -3.7912220000     -0.9254700000      0.1424400000
C                 -2.5638530000     -1.5848870000      0.2646340000
C                 -1.3824910000     -0.8673360000      0.1451330000
C                 -0.0846400000     -1.6059540000      0.2816660000
O                 -0.0922330000     -2.8066350000      0.4914530000
C                  1.1738530000     -0.8208410000      0.1502410000
C                  2.4283650000     -1.4362350000      0.2644690000
O                  2.5279630000     -2.7676310000      0.4984620000
C                  3.5975260000     -0.6604010000      0.1342830000
C                  3.5437530000      0.6917930000     -0.1030830000
C                  2.3033400000      1.3405970000     -0.2230780000
O                  2.3293390000      2.6601960000     -0.4543010000
C                  1.1154950000      0.5864790000     -0.0968460000
C                 -0.1719330000      1.2734930000     -0.2238920000
O                 -0.2057840000      2.5156000000     -0.4421640000
C                 -1.4123750000      0.5245100000     -0.0991210000
H                 -1.8669070000      2.8627030000     -0.5115180000
H                 -4.7923270000      0.9591460000     -0.1933420000
H                 -4.7134870000     -1.4879050000      0.2361540000
H                 -2.5095290000     -2.6490470000      0.4515160000
H                  3.4592760000     -3.0115790000      0.5459250000
H                  4.5631530000     -1.1501400000      0.2249860000
H                  4.4452770000      1.2834760000     -0.2023140000
H                  1.3919810000      2.9636750000     -0.5121520000
$end
$rem
   MAX_SCF_CYCLES=200
   BASIS  =  6-311++G(d,p)
   GUI  =  2
   JOB_TYPE  =  SP
   METHOD  =  B3LYP
   SOLVENT_METHOD = PCM
$end
$pcm
   theory = CPCM
$end
$solvent
   dielectric 37.219
   opticaldielectric 1.43
$end






