$molecule
-2 1
C                 -2.9900410000     -1.5361610000     -0.1538250000
O                 -2.2716350000     -0.5538980000      0.5729550000
C                 -0.9001240000     -0.5415910000      0.2978440000
C                 -0.3549050000      0.6280610000     -0.2547790000
O                 -1.2443770000      1.6350550000     -0.6455160000
C                 -1.0679120000      2.8557970000      0.0517900000
C                  1.0494670000      0.8055710000     -0.4994520000
O                  1.5556760000      1.8871620000     -1.0171860000
C                  1.8522960000     -0.3274670000     -0.1375470000
C                  1.2940230000     -1.4953000000      0.3883410000
C                 -0.0988410000     -1.6836700000      0.6512950000
O                 -0.5925460000     -2.7681230000      1.1688750000
C                  3.3363340000     -0.2209710000     -0.3822860000
H                 -2.5728090000     -2.5303860000      0.0368060000
H                 -4.0320560000     -1.4904110000      0.1908590000
H                 -2.9701540000     -1.3172450000     -1.2349280000
H                 -1.3115080000      2.7355310000      1.1210360000
H                 -1.7706000000      3.5777660000     -0.3858460000
H                 -0.0396860000      3.2142950000     -0.0626880000
H                  1.9446760000     -2.3310640000      0.6510060000
H                  3.7767110000      0.6257570000      0.1641250000
H                  3.8512470000     -1.1418650000     -0.0792430000
H                  3.5567640000     -0.0268430000     -1.4427160000
$end

$rem
   BASIS  =  6-311++G(d,p)
   GUI  =  2
   JOB_TYPE  =  SP
   METHOD  =  B3LYP
   SCF_CONVERGENCE  = 8
   SOLVENT_METHOD = sm12
$end

$smx
   solvent dimethylformamide
   charges CM5
$end





