$molecule
-2 1
C                  0.5178670000      1.6749560000     -2.0136040000
C                 -0.8282830000      1.9673780000     -2.4578630000
C                 -1.7767540000      0.9952900000     -2.6657120000
C                 -1.5503830000     -0.4306810000     -2.4680840000
C                 -0.2434910000     -0.7268870000     -2.0349740000
C                  0.7790710000      0.2584730000     -1.8047390000
O                  1.3699080000      2.6130020000     -1.8340370000
O                 -2.4998950000     -1.2855370000     -2.6871650000
C                  3.2126500000      0.7968320000     -1.0911280000
C                  4.1626570000      1.0583530000     -2.0955670000
C                  3.4404520000      1.2614030000      0.2173100000
C                  4.6101220000      1.9687510000      0.5060020000
C                  5.3242080000      1.7678200000     -1.7807780000
C                  5.5588970000      2.2232120000     -0.4837660000
H                 -1.0593980000      3.0195860000     -2.6239580000
H                 -2.7770850000      1.2752920000     -3.0015840000
H                  0.0196490000     -1.7654910000     -1.8600490000
H                  4.7744520000      2.3308520000      1.5192720000
H                  6.0500090000      1.9720670000     -2.5658450000
H                  6.4664150000      2.7739660000     -0.2487540000
C                  2.0702500000     -0.1810550000     -1.3617050000
O                  2.3977210000     -1.3782170000     -1.1520980000
C                  2.3981430000      1.0346150000      1.2848780000
H                  2.1534510000     -0.0273310000      1.3793300000
H                  1.4737850000      1.5554810000      1.0164960000
H                  2.7427540000      1.4058970000      2.2565870000
C                  3.8956320000      0.6139070000     -3.5127910000
H                  3.0073450000      1.1234220000     -3.8988830000
H                  3.6964160000     -0.4606650000     -3.5595080000
H                  4.7459070000      0.8445300000     -4.1644610000
$end

$rem
   BASIS  =  6-311++G(d,p)
   GUI  =  2
   JOB_TYPE  =  SP
   METHOD  =  B3LYP
   SCF_CONVERGENCE  = 8
   SOLVENT_METHOD = sm12
$end

$smx
   solvent dimethylformamide
   charges CM5
$end





