$molecule
-2 1
O                 -0.3080000000      2.1592900000      0.3710260000
C                 -0.5257480000      0.9163780000      0.1470910000
C                  0.5231160000     -0.0156670000     -0.1669800000
C                  0.2649120000     -1.3725350000     -0.4267590000
O                  1.3185770000     -2.2299730000     -0.7224090000
C                 -1.0380730000     -1.9701560000     -0.4285380000
O                 -1.2518070000     -3.2067130000     -0.6717730000
C                 -2.1126580000     -1.0345300000     -0.1175560000
C                 -3.4467680000     -1.5048310000     -0.0754600000
C                 -4.5079910000     -0.6689320000      0.2196170000
C                 -4.2712730000      0.7017990000      0.4907890000
C                 -2.9742530000      1.1865120000      0.4613850000
C                 -1.8734160000      0.3549960000      0.1679700000
C                  1.9242000000      0.5552370000     -0.2934840000
H                 -3.5969040000     -2.5586080000     -0.2882960000
H                 -5.5230320000     -1.0617780000      0.2428710000
H                 -5.1015260000      1.3661910000      0.7219320000
H                 -2.7558320000      2.2301830000      0.6652690000
C                  2.9231020000      0.0534350000      0.7233110000
C                  4.1958160000     -0.3427080000      0.5464410000
C                  4.9118680000     -0.3811020000     -0.7830260000
C                  5.0468460000     -0.8017460000      1.7086380000
H                  2.1283180000     -1.8318960000     -0.3801520000
H                  1.7953010000      1.6356810000     -0.1488450000
H                  2.3089580000      0.4066470000     -1.3122540000
H                  2.5355740000      0.0294180000      1.7414570000
H                  4.2752450000     -0.0907210000     -1.6198820000
H                  5.3061670000     -1.3877990000     -0.9834980000
H                  5.7822980000      0.2886210000     -0.7731600000
H                  4.5082060000     -0.7486230000      2.6586650000
H                  5.9580820000     -0.1948790000      1.8009560000
H                  5.3896850000     -1.8376490000      1.5690300000
$end

$rem
   BASIS  =  6-311++G(d,p)
   GUI  =  2
   JOB_TYPE  =  SP
   METHOD  =  B3LYP
   SCF_CONVERGENCE  = 8
   SOLVENT_METHOD = sm12
$end

$smx
   solvent dimethylformamide
   charges CM5
$end





