$molecule
-2 1
C                  6.8763690000     -1.6273040000     -0.2414080000
C                  7.4606330000     -0.6711420000     -1.0496840000
C                  6.6284040000      0.3430880000     -1.6301670000
C                  5.2767710000      0.3371920000     -1.3438790000
C                  4.6596270000     -0.6301060000     -0.5143170000
C                  5.4933330000     -1.6537820000      0.0604220000
C                  4.9698270000     -2.6962060000      0.9263980000
C                  3.5388790000     -2.6244370000      1.1668310000
C                  2.7051020000     -1.6010350000      0.5917120000
C                  3.2286000000     -0.5586330000     -0.2742950000
C                  2.9219350000     -3.5911240000      1.9972260000
C                  1.5687070000     -3.6027200000      2.2757250000
C                  0.7396840000     -2.5770430000      1.7109770000
C                  1.3220790000     -1.6274250000      0.8936980000
O                  5.7095240000     -3.6043560000      1.4363280000
O                  2.4888700000      0.3494100000     -0.7843700000
C                  0.9789600000     -4.6476590000      3.1961860000
C                 -0.7505410000     -2.5650360000      1.9678990000
C                  8.9407680000     -0.7192850000     -1.3559800000
C                  7.2286540000      1.4252400000     -2.4994260000
H                  7.4785290000     -2.4170540000      0.1989480000
H                  4.6244420000      1.1019970000     -1.7558980000
H                  3.5772420000     -4.3453570000      2.4237650000
H                  0.7169470000     -0.8482330000      0.4388460000
H                  1.7423190000     -5.3709570000      3.4969630000
H                  0.1598440000     -5.2044530000      2.7276320000
H                  0.5587040000     -4.2085430000      4.1181090000
H                 -0.9912510000     -2.5362000000      3.0364140000
H                 -1.2546020000     -3.4623250000      1.5676490000
H                 -1.2151050000     -1.6926490000      1.4994540000
H                  9.4236000000     -1.5262750000     -0.7974280000
H                  9.4524140000      0.2149680000     -1.0992760000
H                  9.1441840000     -0.8918520000     -2.4275360000
H                  7.7787000000      1.0183750000     -3.3552240000
H                  7.9480040000      2.0571050000     -1.9492480000
H                  6.4471420000      2.0834020000     -2.8898170000
$end
$rem
   MAX_SCF_CYCLES=200
   BASIS  =  6-311++G(d,p)
   GUI  =  2
   JOB_TYPE  =  SP
   METHOD  =  B3LYP
   SOLVENT_METHOD = PCM
$end
$pcm
   theory = CPCM
$end
$solvent
   dielectric 37.219
   opticaldielectric 1.43
$end





