%chk=254-rad-PCM.chk
%nproc=8
%mem=30GB
#P UB3LYP/6-311++G(d,p) SCRF=(PCM,Solvent=n,n-DiMethylFormamide)

Radical PCM in DMF 

-1 2
C                 -1.8391490000      1.7251060000     -0.7986380000
C                 -2.5618970000      0.8793390000     -1.6136100000
C                 -2.0700200000     -0.4118320000     -1.9022100000
C                 -0.6113920000      1.3200700000     -0.2461340000
C                 -0.1183300000      0.0248630000     -0.5360420000
C                 -0.8672670000     -0.8247750000     -1.3688370000
C                  0.1333670000      2.2452750000      0.6185300000
C                  1.3933240000      1.7604800000      1.1509370000
C                  1.8714330000      0.4852010000      0.8725930000
C                  1.1585640000     -0.4420610000      0.0171680000
O                 -0.3175420000      3.3954040000      0.8706960000
O                  1.5998870000     -1.5939070000     -0.2463200000
C                  2.1534090000      2.7186080000      2.0386840000
C                  3.1845480000     -0.0174280000      1.4284960000
C                  4.3637070000      0.1565170000      0.4509470000
C                  5.6835490000     -0.4017660000      0.9940800000
C                  6.8628970000     -0.2438650000      0.0273910000
C                  8.1830670000     -0.8093640000      0.5639560000
C                  9.3615560000     -0.6523970000     -0.4039110000
C                 10.6807950000     -1.2211230000      0.1312600000
C                 11.8586990000     -1.0647990000     -0.8370280000
C                 13.1780160000     -1.6342150000     -0.3030080000
C                 14.3483890000     -1.4735560000     -1.2780980000
Cl                -2.9719250000     -1.5182380000     -2.9417290000
Cl                -4.0979110000      1.4382450000     -2.2818210000
H                 -2.2006560000      2.7186540000     -0.5658420000
H                 -0.4730970000     -1.8109210000     -1.5792940000
H                  1.6642020000      3.6923660000      2.0131590000
H                  3.1949200000      2.8348340000      1.7213360000
H                  2.1710100000      2.3767370000      3.0814360000
H                  3.0762970000     -1.0861050000      1.6374860000
H                  3.4206810000      0.4850490000      2.3718890000
H                  4.4871450000      1.2204150000      0.2117490000
H                  4.1084030000     -0.3502720000     -0.4850040000
H                  5.5507830000     -1.4656010000      1.2305350000
H                  5.9273500000      0.0936950000      1.9443000000
H                  6.9959600000      0.8199480000     -0.2104260000
H                  6.6172740000     -0.7376400000     -0.9216070000
H                  8.0496730000     -1.8732150000      0.8005970000
H                  8.4283240000     -0.3164620000      1.5142600000
H                  9.4961110000      0.4114630000     -0.6398680000
H                  9.1155400000     -1.1438850000     -1.3542570000
H                 10.5459940000     -2.2849930000      0.3669130000
H                 10.9271200000     -0.7296590000      1.0818140000
H                 11.9949360000     -0.0010490000     -1.0729910000
H                 11.6132280000     -1.5560040000     -1.7878820000
H                 13.0426370000     -2.6971270000     -0.0678750000
H                 13.4243940000     -1.1430950000      0.6465230000
H                 14.1461650000     -1.9839050000     -2.2253600000
H                 15.2734540000     -1.8894760000     -0.8677800000
H                 14.5308960000     -0.4183050000     -1.5058230000





