$molecule
-1 2
C                 -3.0100270000     -1.5508880000     -0.1485220000
O                 -2.2713110000     -0.5576750000      0.5573870000
C                 -0.9205940000     -0.5208050000      0.2820480000
C                 -0.3821670000      0.6291430000     -0.2545340000
O                 -1.2354800000      1.6413010000     -0.6427230000
C                 -1.0743430000      2.8740830000      0.0526930000
C                  1.0481720000      0.7805150000     -0.4953050000
O                  1.5344450000      1.8344310000     -1.0000480000
C                  1.8820350000     -0.3555660000     -0.1372140000
C                  1.3276130000     -1.4978480000      0.3822090000
C                 -0.0839230000     -1.6623190000      0.6365210000
O                 -0.5639690000     -2.7170670000      1.1444460000
C                  3.3620970000     -0.2230530000     -0.3796860000
H                 -2.6202210000     -2.5488600000      0.0630860000
H                 -4.0423500000     -1.4707550000      0.2009940000
H                 -2.9828470000     -1.3541140000     -1.2289420000
H                 -1.3023080000      2.7461750000      1.1196530000
H                 -1.7965230000      3.5685770000     -0.3836660000
H                 -0.0611460000      3.2621440000     -0.0728370000
H                  1.9533780000     -2.3470240000      0.6456990000
H                  3.7785710000      0.6242050000      0.1761840000
H                  3.8897990000     -1.1339980000     -0.0827680000
H                  3.5710990000     -0.0206020000     -1.4357520000
$end
$rem
   MAX_SCF_CYCLES=200
   BASIS  =  6-311++G(d,p)
   GUI  =  2
   JOB_TYPE  =  SP
   METHOD  =  B3LYP
   SOLVENT_METHOD = PCM
$end
$pcm
   theory = CPCM
$end
$solvent
   dielectric 37.219
   opticaldielectric 1.43
$end





