%chk=298.chk
%nproc=8
%mem=30GB
#P UB3LYP/6-311++G(d,p) nosym opt freq Int=Acc2E=11

Oxidized

0 1
 C                 -7.14986500    3.93314900    0.87908500
 C                 -8.12779800    3.19691200    0.21745600
 C                 -7.79269100    2.44876200   -0.91260700
 C                 -5.83500900    3.91895100    0.40748100
 C                 -5.49480400    3.16744500   -0.72927700
 C                 -6.48164800    2.43368100   -1.38522800
 C                 -4.78747900    4.69387700    1.09687600
 C                 -3.39910100    4.64051800    0.55517800
 C                 -3.04839900    3.93097200   -0.54567000
 C                 -4.08416400    3.14428400   -1.24763200
 O                 -4.98567000    5.38238800    2.09174900
 O                 -3.80681900    2.48362400   -2.23901900
 O                 -2.51383800    5.36987100    1.25382900
 C                 -1.63783300    3.88741700   -1.06220800
 C                 -0.82833600    2.70299300   -0.49169500
 C                  0.60633200    2.66038800   -1.02758700
 C                  1.42839300    1.49333400   -0.46923500
 C                  2.86567200    1.44786100   -1.00035000
 C                  3.68868900    0.28046100   -0.44399700
 C                  5.12569700    0.23535500   -0.97552900
 C                  5.94846300   -0.93240400   -0.41901000
 C                  7.38583000   -0.96895600   -0.95473400
 C                  8.19376400   -2.13788100   -0.38992100
 S                  9.90323500   -2.12845900   -1.06342200
 C                 10.58552800   -3.60628800   -0.21142000
 C                 12.04528300   -3.83068400   -0.60739700
 C                 12.66102000   -5.05544900    0.08183900
 C                 14.12541300   -5.29413100   -0.30405500
 C                 14.74820400   -6.51527200    0.38186600
 C                 16.21271000   -6.75463900   -0.00249400
 C                 16.83674000   -7.97500700    0.68385400
 C                 18.30123600   -8.21440000    0.30022800
 C                 18.92663100   -9.43429600    0.98627600
 C                 20.38973700   -9.66494500    0.59686500
 H                 -7.38546000    4.52153500    1.75742300
 H                 -9.14910700    3.20487200    0.58017200
 H                 -8.55605500    1.87574500   -1.42666000
 H                 -6.20478500    1.85900400   -2.26032400
 H                 -3.01922100    5.78759500    1.97703100
 H                 -1.13454500    4.82386400   -0.80834400
 H                 -1.67025600    3.80184700   -2.15117600
 H                 -1.34099700    1.76795400   -0.74109500
 H                 -0.80989000    2.77438000    0.60173800
 H                  1.11056900    3.60569100   -0.78887500
 H                  0.58080700    2.59499300   -2.12269100
 H                  0.92383600    0.54863100   -0.70921600
 H                  1.44955000    1.55721300    0.62640500
 H                  3.37008500    2.39276000   -0.76021100
 H                  2.84429700    1.38529300   -2.09599400
 H                  3.18416900   -0.66436200   -0.68433600
 H                  3.71001200    0.34288900    0.65178500
 H                  5.63047500    1.17976800   -0.73501500
 H                  5.10471500    0.17270900   -2.07104100
 H                  5.44568900   -1.87730300   -0.66154800
 H                  5.97020200   -0.86991900    0.67648700
 H                  7.89106300   -0.02796100   -0.70966100
 H                  7.36668800   -1.03699100   -2.04825200
 H                  7.72096000   -3.08931000   -0.65113800
 H                  8.24830200   -2.07141100    0.70077600
 H                  9.97941800   -4.47603300   -0.48192100
 H                 10.50298600   -3.45507100    0.86901200
 H                 12.62957300   -2.93815200   -0.35681800
 H                 12.11113500   -3.95139200   -1.69454200
 H                 12.07152400   -5.94724700   -0.16649400
 H                 12.58894100   -4.93460700    1.17027400
 H                 14.71397000   -4.40110700   -0.05773100
 H                 14.19722600   -5.41430900   -1.39261200
 H                 14.15919700   -7.40826900    0.13544200
 H                 14.67530200   -6.39489200    1.47058000
 H                 16.80141900   -5.86129900    0.24321200
 H                 16.28560300   -6.87542000   -1.09111500
 H                 16.24812600   -8.86847100    0.43795700
 H                 16.76353700   -7.85420200    1.77255000
 H                 18.89076500   -7.32132400    0.54586800
 H                 18.37547700   -8.33588000   -0.78843800
 H                 18.33851200  -10.32696500    0.74040200
 H                 18.85326400   -9.31305600    2.07398600
 H                 20.49164000   -9.82472200   -0.48128900
 H                 20.80530400  -10.54104000    1.10262300
 H                 21.01028400   -8.80308100    0.86226900












