%chk=316.chk
%nproc=8
%mem=30GB
#P UB3LYP/6-311++G(d,p) nosym opt freq SCRF=(PCM,Solvent=n,n-DiMethylFormamide)

Oxidized

0 1
O                 -1.3295580000     -2.3931260000      1.1733910000
C                 -1.1989660000     -1.3348140000      0.5923270000
C                 -2.4009190000     -0.6263000000      0.0290160000
O                 -2.2626680000     -0.1876570000     -1.3254660000
C                 -2.3031410000      0.8145980000     -0.3057950000
C                 -1.0040000000      1.5380000000     -0.0753530000
O                 -0.9805710000      2.7510080000     -0.0225550000
C                  0.2176830000      0.6943990000      0.0741950000
C                  1.4745640000      1.2916720000     -0.0536450000
C                  2.6278320000      0.5335100000      0.1123890000
C                  2.5356610000     -0.8247660000      0.4277790000
C                  1.2902740000     -1.4240780000      0.5770130000
C                  0.1247130000     -0.6756300000      0.3923940000
H                 -3.3614900000     -1.0607440000      0.2891020000
H                 -3.1918630000      1.4383450000     -0.2914230000
H                  1.5260990000      2.3496280000     -0.2802650000
H                  3.6004560000      0.9990370000      0.0019590000
H                  3.4368380000     -1.4120040000      0.5617140000
H                  1.1990570000     -2.4710770000      0.8392160000


