$molecule
-2 1
O                  0.1263790000      0.3167840000      2.7029640000
C                  0.0673960000      0.1207190000      1.4519070000
C                 -1.1932830000      0.0534820000      0.7293370000
C                 -2.4460020000      0.2397810000      1.3735440000
C                 -3.6426520000      0.1528670000      0.6682000000
C                 -3.6443440000     -0.0737380000     -0.7108400000
C                 -2.4144260000     -0.2023950000     -1.3847870000
C                 -1.2264640000     -0.1521350000     -0.6698570000
O                 -0.0665150000     -0.3403690000     -1.3920440000
C                  1.1574360000     -0.1725590000     -0.7788930000
C                  2.2742540000     -0.2423500000     -1.5991500000
C                  3.5624990000     -0.1352450000     -1.0402790000
C                  3.6905080000      0.0899830000      0.3330340000
C                  2.5648160000      0.1965360000      1.1445210000
C                  1.2556250000      0.0323240000      0.6173370000
H                 -2.4266630000      0.4334200000      2.4397970000
H                 -4.5899780000      0.2645300000      1.1927080000
H                 -4.5782950000     -0.1493940000     -1.2615630000
H                 -2.3728450000     -0.3710770000     -2.4564600000
H                  2.1322610000     -0.4093480000     -2.6624590000
H                  4.4408590000     -0.2262500000     -1.6739150000
H                  4.6834760000      0.1849870000      0.7689050000
H                  2.6459580000      0.3894480000      2.2079920000
$end
$rem
   MAX_SCF_CYCLES=200
   BASIS  =  6-311++G(d,p)
   GUI  =  2
   JOB_TYPE  =  SP
   METHOD  =  B3LYP
   SOLVENT_METHOD = PCM
$end
$pcm
   theory = CPCM
$end
$solvent
   dielectric 37.219
   opticaldielectric 1.43
$end






