%chk=047-an.chk
%nproc=8
%mem=30GB
#P UB3LYP/6-311++G(d,p) nosym opt freq

Reduced

-2 1
C                  2.6513730000      1.4403050000      0.8652270000
C                  2.3289970000      0.5212140000     -0.3340700000
C                  3.5885000000     -0.2417830000     -0.7685520000
C                  1.1182930000     -0.3522610000     -0.0386990000
C                  1.2334110000     -1.7032640000      0.2945440000
C                  0.1182990000     -2.5598540000      0.5788980000
O                  0.2424980000     -3.8086060000      0.8972760000
C                 -1.1498430000     -1.8991730000      0.4724720000
C                 -1.3065950000     -0.5530590000      0.1360890000
C                 -2.7138540000      0.0264480000      0.0541920000
C                 -2.9434640000      1.1517620000      1.0847850000
C                 -3.0554540000      0.5212610000     -1.3668860000
C                 -0.1718090000      0.2952970000     -0.1307020000
O                 -0.2944980000      1.5526140000     -0.4457650000
H                  3.4733690000      2.1362380000      0.6307980000
H                  2.9517300000      0.8419950000      1.7346580000
H                  1.7635110000      2.0198070000      1.1254430000
H                  2.0288480000      1.1893590000     -1.1529100000
H                  4.3869540000      0.4538590000     -1.0569190000
H                  3.3816090000     -0.8980400000     -1.6203410000
H                  3.9799810000     -0.8711800000      0.0393050000
H                  2.2137380000     -2.1713880000      0.3584420000
H                 -2.0342010000     -2.5069380000      0.6734810000
H                 -3.4095810000     -0.7905230000      0.2964950000
H                 -2.2269780000      1.9554570000      0.8974300000
H                 -3.9681340000      1.5518260000      1.0205620000
H                 -2.7864450000      0.7753390000      2.1016170000
H                 -4.0770660000      0.9310630000     -1.4149790000
H                 -2.9838790000     -0.3033500000     -2.0847820000
H                 -2.3393070000      1.2955780000     -1.6539630000


