$molecule
-1 2
C                 -3.1122970000     -3.2085940000     -0.8264440000
C                 -2.1109130000     -2.1476330000     -0.9525590000
C                 -2.4860540000     -0.8235650000     -0.8203650000
C                 -3.8331430000     -0.3862530000     -0.5364410000
C                 -4.8107030000     -1.4490800000     -0.4162500000
C                 -4.4660370000     -2.7639010000     -0.5573420000
O                 -2.8321610000     -4.4363580000     -0.9274600000
O                 -4.1378110000      0.8361620000     -0.4121300000
C                 -0.6893160000     -2.4783720000     -1.1735300000
C                 -0.0794400000     -3.4438610000     -2.0693460000
C                  0.3565610000     -1.8201540000     -0.5715510000
C                  1.3308840000     -3.2931680000     -1.9664460000
N                  1.5705740000     -2.2917670000     -1.0496280000
C                 -0.5832080000     -4.4007000000     -2.9655460000
C                  0.3036700000     -5.1604000000     -3.7165430000
C                  1.6976490000     -4.9952370000     -3.5939250000
C                  2.2285410000     -4.0598980000     -2.7149650000
H                 -1.7502640000     -0.0350250000     -0.9514650000
H                 -5.8363190000     -1.1528180000     -0.2122000000
H                 -5.2080000000     -3.5524070000     -0.4633230000
H                  0.3254500000     -1.0406730000      0.1735300000
H                  2.4747680000     -2.0161430000     -0.7085640000
H                 -1.6510950000     -4.5611320000     -3.0237720000
H                 -0.0819280000     -5.9075640000     -4.4025350000
H                  2.3657710000     -5.6093920000     -4.1892220000
H                  3.3018590000     -3.9281860000     -2.6157270000
$end
$rem
   MAX_SCF_CYCLES=200
   BASIS  =  6-311++G(d,p)
   GUI  =  2
   JOB_TYPE  =  SP
   METHOD  =  B3LYP
   SOLVENT_METHOD = COSMO
$end
$solvent
   dielectric 37.219
   opticaldielectric 1.43
$end





