$molecule
0 1
N                  3.5795880000     -1.2794230000     -0.0276780000
C                  2.8899850000     -0.1152570000     -0.1432880000
C                  3.5939200000      1.0962910000     -0.3383910000
C                  2.9258600000      2.2975520000     -0.4550120000
C                  1.5298250000      2.3513540000     -0.3833820000
C                  0.8092980000      1.1808940000     -0.1937110000
C                 -0.6817410000      1.2911750000     -0.1251760000
O                 -1.2099400000      2.4039200000     -0.2354340000
C                 -1.4645420000      0.0698850000      0.0711240000
C                 -2.8899630000      0.1153330000      0.1438670000
N                 -3.5794580000      1.2796740000      0.0293770000
C                 -3.5939340000     -1.0963230000      0.3382020000
C                 -2.9259040000     -2.2976310000      0.4544350000
C                 -1.5298470000     -2.3514000000      0.3831150000
C                 -0.8093000000     -1.1808720000      0.1939560000
C                  0.6817670000     -1.2911470000      0.1256460000
O                  1.2099500000     -2.4038900000      0.2358560000
C                  1.4645750000     -0.0698170000     -0.0705430000
H                  3.0577910000     -2.1378340000      0.0983540000
H                  4.5819220000     -1.2816990000     -0.1025850000
H                  4.6773510000      1.0652420000     -0.3945670000
H                  3.4929260000      3.2099200000     -0.6038620000
H                  0.9942520000      3.2863960000     -0.4728690000
H                 -4.5820060000      1.2815790000      0.1013770000
H                 -3.0577210000      2.1378990000     -0.0981690000
H                 -4.6773740000     -1.0653000000      0.3942000000
H                 -3.4930090000     -3.2100630000      0.6027350000
H                 -0.9942720000     -3.2864580000      0.4724240000
$end

$rem
   BASIS  =  6-311++G(d,p)
   GUI  =  2
   JOB_TYPE  =  SP
   METHOD  =  B3LYP
   SCF_CONVERGENCE  = 8
   SOLVENT_METHOD = sm12
$end

$smx
   solvent dimethylformamide
   charges CM5
$end





