%chk=148-an-PCM.chk
%nproc=8
%mem=30GB
#P UB3LYP/6-311++G(d,p) SCRF=(PCM,Solvent=n,n-DiMethylFormamide)

Reduced 

-2 1
C                 -2.9857520000      3.7689990000      0.5287770000
C                 -4.2323360000      3.2024660000      0.5762260000
C                 -4.4257640000      1.8095190000      0.4306560000
C                 -1.8320000000      2.9698960000      0.3364170000
C                 -2.0011580000      1.5459900000      0.1857350000
C                 -3.3123390000      1.0169720000      0.2439180000
C                 -0.5326470000      3.6167330000      0.2840680000
C                  0.5855840000      2.7150270000      0.0697120000
C                  0.4212460000      1.2905930000     -0.0813410000
C                 -0.8807310000      0.6451920000     -0.0319030000
C                  1.8929200000      3.2547280000     -0.0096770000
C                  2.9763290000      2.4425940000     -0.2191490000
C                  2.8426580000      1.0432810000     -0.3708250000
C                  1.5763590000      0.5015850000     -0.2949320000
O                 -0.3858720000      4.8757280000      0.4113820000
O                 -1.0286510000     -0.6112710000     -0.1718340000
H                 -3.4094120000     -0.0573150000      0.1288640000
H                  1.4229230000     -0.5667930000     -0.4034790000
H                 -2.8499150000      4.8400300000      0.6255580000
H                  2.0047500000      4.3283220000      0.0893850000
H                  3.7151800000      0.4212030000     -0.5280310000
O                  4.2373940000      3.0802190000     -0.4002470000
C                  5.3305230000      2.7153760000      0.2954570000
C                  6.5371940000      3.5039830000     -0.1728570000
O                  5.3767160000      1.8589680000      1.1482680000
O                 -5.3437820000      4.0900270000      0.6576160000
H                  6.2555080000      4.4894350000     -0.5439670000
H                  7.0301940000      2.9631550000     -0.9908810000
H                  7.2525710000      3.5914840000      0.6446360000
C                 -6.3109040000      3.9429150000      1.5823240000
C                 -7.4013520000      4.9737040000      1.3685620000
O                 -6.3462150000      3.0956280000      2.4446910000
H                 -5.4206880000      1.3843340000      0.4791780000
H                 -7.0087970000      5.8899040000      0.9273000000
H                 -7.8921820000      5.1845420000      2.3184640000
H                 -8.1577640000      4.5670200000      0.6850950000





