%chk=080-an.chk
%nproc=8
%mem=30GB
#P UB3LYP/6-311++G(d,p) nosym opt freq

Reduced

-2 1
C          1.38010        1.17260       -2.64314
C         -0.03171        1.55397       -2.85520
C         -1.03476        1.01626       -2.14978
C         -0.74517       -0.00517       -1.11187
C          0.66122       -0.39423       -0.90705
O          2.25856        1.72993       -3.28769
O         -1.63391       -0.52609       -0.45061
H         -0.20071        2.30867       -3.61599
C          1.65903        0.12918       -1.63254
C          3.02717       -0.35009       -1.30499
C          4.00753       -0.58977       -2.39442
C          5.36728       -0.40522       -2.11195
C          3.61981       -1.05732       -3.65670
C          6.32820       -0.65209       -3.09356
C          5.93628       -1.09676       -4.35535
C          4.58560       -1.30251       -4.63600
O          3.34830       -0.57649       -0.13993
H          5.68166       -0.06660       -1.12660
H          2.57799       -1.24437       -3.89741
H          7.38161       -0.49942       -2.87234
H          6.68548       -1.28780       -5.11996
H          4.28556       -1.65685       -5.61924
C         -2.47045        1.39159       -2.34105
H          0.83085       -1.13760       -0.13373
H         -2.59185        2.15232       -3.11960
H         -2.88848        1.79676       -1.41369
H         -3.05954        0.51737       -2.63712













