%chk=072-an.chk
%nproc=8
%mem=30GB
#P UB3LYP/6-311++G(d,p) nosym opt freq

Reduced

-2 1
C          0.71965        1.12950       -1.46521
C         -0.69520        0.87260       -1.79870
C         -1.49718        0.18124       -0.97891
C         -0.99105       -0.37291        0.28470
C          0.44060       -0.17429        0.58459
C          1.23744        0.53493       -0.22490
O          1.38852        1.82906       -2.21037
O         -1.69128       -0.96372        1.09258
S          2.90753        0.70993        0.18519
C          3.12322        2.47115        0.34476
C          3.71777        3.20035       -0.68798
C          2.74343        3.09978        1.53645
C          2.93098        4.47469        1.67672
C          3.89842        4.57537       -0.54028
C          3.50321        5.21089        0.63810
O          3.73066        0.24691       -0.91569
O          3.13603        0.16579        1.51477
H          4.02948        2.71306       -1.61014
H          2.32075        2.53145        2.36186
H          4.35129        5.15170       -1.34388
H          2.64344        4.97364        2.59935
H          3.65241        6.28249        0.75042
S         -3.13873       -0.09274       -1.44609
C         -4.08401        0.67629       -0.14650
C         -4.28483        2.06131       -0.17693
C         -4.66318       -0.10632        0.85544
C         -5.41742        0.50792        1.85491
C         -5.04337        2.66664        0.82478
C         -5.60432        1.89122        1.84076
H         -1.02842        1.28623       -2.74682
H          0.78892       -0.64025        1.50252
H         -3.87417        2.67139       -0.97826
H         -4.52317       -1.18570        0.87411
H         -5.86311       -0.09339        2.64409
H         -5.20957        3.74136        0.80967
H         -6.19889        2.36422        2.61919
O         -3.41796       -1.51602       -1.43301
O         -3.43108        0.67280       -2.64798











