%chk=173.chk
%nproc=8
%mem=30GB
#P UB3LYP/6-311++G(d,p) nosym opt freq

Oxidized

0 1
C         -1.52158        2.41944       -3.84586
C         -1.43146        1.03419       -3.99005
C         -1.04483        0.24749       -2.90762
C         -1.22453        3.02293       -2.61459
C         -0.83834        2.23981       -1.53732
C         -0.74874        0.84723       -1.68269
C         -1.31995        4.48433       -2.47446
C         -0.52716        2.86131       -0.24067
C         -1.02681        5.13408       -1.16501
C         -0.58865        4.34270       -0.08375
C         -1.14501        6.54210       -1.03147
C         -0.82317        7.10699        0.20601
C         -0.36184        6.32649        1.26765
C         -0.25250        4.93697        1.16077
O         -1.61967        5.14688       -3.46509
O         -0.24385        2.12853        0.70429
H         -1.82467        3.02647       -4.69747
H         -1.66306        0.57101       -4.94655
H         -0.97351       -0.83250       -3.01544
H         -0.44754        0.22431       -0.84195
H         -0.07948        6.83889        2.18268
H         -0.93474        8.17382        0.37683
N         -1.67244        7.34293       -2.05983
N          0.28327        4.18385        2.21990
H         -1.77222        6.78910       -2.92465
H          0.20256        3.17581        2.01531
C         -0.07803        4.47497        3.61068
C          0.84593        3.66202        4.51927
C         -1.53628        4.10435        3.87772
C         -1.11005        8.66776       -2.34091
C          0.28950        8.54272       -2.94176
C         -2.04257        9.37836       -3.32345
H          0.08197        5.53094        3.85091
H          0.62833        3.85922        5.57417
H          1.89475        3.92046        4.33587
H          0.73539        2.58589        4.34375
H         -2.21756        4.70890        3.26988
H         -1.79313        4.27058        4.92922
H         -1.72991        3.05171        3.64245
H         -1.06656        9.28234       -1.43602
H          0.98494        8.07751       -2.23531
H          0.69007        9.52815       -3.20202
H          0.28069        7.92850       -3.84926
H         -2.12996        8.82454       -4.26510
H         -1.67504       10.38408       -3.55260
H         -3.04932        9.47371       -2.90180








