$molecule
-1 2
O                  2.3848220000      2.8801830000     -1.1795100000
N                  2.6613190000      2.3196040000     -0.1297210000
O                  3.2665190000      2.8384470000      0.8039710000
C                  2.3787240000      0.8649700000     -0.0335800000
C                  3.4979790000      0.0632760000     -0.0635790000
C                  3.3397830000     -1.3350460000     -0.1223290000
C                  2.0719330000     -1.8780040000     -0.1488490000
C                  0.9218140000     -1.0656320000     -0.0884450000
C                 -0.3921080000     -1.7149660000     -0.1072990000
O                 -0.5105780000     -2.9597140000     -0.1978050000
C                 -1.5543820000     -0.8289870000     -0.0113150000
C                 -2.8512600000     -1.3851900000     -0.0484440000
C                 -3.9721190000     -0.5858000000      0.0546850000
C                 -3.8293650000      0.8101190000      0.2047220000
C                 -2.5700030000      1.3744460000      0.2480700000
C                 -1.4106950000      0.5769540000      0.1374620000
C                 -0.0968720000      1.2277560000      0.1921220000
O                  0.0268450000      2.4523700000      0.4158180000
C                  1.0586310000      0.3570720000     -0.0016540000
H                  4.4817550000      0.5169650000     -0.0704110000
H                  4.2163270000     -1.9727330000     -0.1600110000
H                  1.9148620000     -2.9484390000     -0.2095850000
H                 -2.9298020000     -2.4604530000     -0.1590100000
H                 -4.9627850000     -1.0290780000      0.0221100000
H                 -4.7105370000      1.4392400000      0.2863960000
H                 -2.4308070000      2.4426410000      0.3661900000
$end
$rem
   MAX_SCF_CYCLES=200
   BASIS  =  6-311++G(d,p)
   GUI  =  2
   JOB_TYPE  =  SP
   METHOD  =  B3LYP
   SOLVENT_METHOD = COSMO
$end
$solvent
   dielectric 37.219
   opticaldielectric 1.43
$end





