$molecule
-1 2
C                 -1.2619440000      2.5425570000     -0.8088040000
C                 -2.3194250000      1.9001550000     -0.2151860000
C                 -2.1511030000      0.5979180000      0.3334000000
C                  0.0245910000      1.9318550000     -0.8934150000
C                  0.1932160000      0.6127270000     -0.3368250000
C                 -0.9267970000     -0.0219300000      0.2706770000
C                  1.1254070000      2.5622270000     -1.4947390000
C                  2.3797460000      1.9622090000     -1.5750720000
C                  2.5415320000      0.6390940000     -1.0135780000
C                  1.4593510000      0.0032180000     -0.4158660000
C                  3.4856430000      2.6904650000     -2.2224990000
C                  4.8050390000      2.0017010000     -2.2826060000
C                  4.8903610000      0.6688760000     -1.6955460000
C                  3.8437710000      0.0264450000     -1.1001890000
O                  3.3143430000      3.8345450000     -2.6976070000
O                  5.8114760000      2.5222990000     -2.8089610000
H                 -1.3885110000      3.5362550000     -1.2282400000
H                 -3.2901530000      2.3829230000     -0.1615200000
H                 -2.9937080000      0.0981480000      0.8004430000
H                 -0.7947560000     -1.0164100000      0.6879990000
H                  1.0223900000      3.5547030000     -1.9206640000
H                  1.5945900000     -0.9890990000     -0.0013620000
H                  5.8701130000      0.2122410000     -1.7697970000
O                  3.9191170000     -1.2368020000     -0.5375570000
C                  5.1800750000     -1.8867450000     -0.5303010000
C                  5.0333600000     -3.1769650000      0.2171120000
C                  5.4640520000     -4.3565880000     -0.2224470000
H                  5.9214660000     -1.2465970000     -0.0291330000
H                  5.5342940000     -2.0668880000     -1.5532870000
H                  4.5542080000     -3.0968740000      1.1902340000
H                  5.9313350000     -4.4637150000     -1.1969560000
H                  5.3661040000     -5.2564480000      0.3750250000
$end
$rem
   MAX_SCF_CYCLES=200
   BASIS  =  6-311++G(d,p)
   GUI  =  2
   JOB_TYPE  =  SP
   METHOD  =  B3LYP
   SOLVENT_METHOD = PCM
$end
$pcm
   theory = CPCM
$end
$solvent
   dielectric 37.219
   opticaldielectric 1.43
$end






