$molecule
-2 1
C                  1.0905590000      1.7416310000     -0.6813450000
C                 -0.1103610000      1.2619340000     -0.0227480000
C                 -0.4025380000     -0.0905740000      0.1219400000
C                  0.4671600000     -1.1533540000     -0.3717130000
C                  1.6351970000     -0.6941620000     -1.0229820000
C                  1.9220710000      0.6820980000     -1.1819890000
O                  1.3695430000      2.9946250000     -0.7696050000
O                  0.1659640000     -2.4048160000     -0.2242270000
S                  3.4217860000      1.1147450000     -2.0133990000
C                  4.4509350000      1.9912830000     -0.7974130000
C                  4.2001190000      3.3344740000     -0.4844660000
C                  5.4924000000      1.2979130000     -0.1732980000
C                  6.2972220000      1.9480910000      0.7594430000
C                  5.0098360000      3.9713980000      0.4549840000
C                  6.0614170000      3.2916240000      1.0766960000
O                  3.2283080000      2.0543390000     -3.1421860000
O                  4.1857890000     -0.1262640000     -2.3191080000
H                  3.3489900000      3.8194810000     -0.9445440000
H                  5.6565960000      0.2605020000     -0.4391150000
H                  4.8132620000      5.0098190000      0.7084150000
H                  2.3181410000     -1.4283330000     -1.4322510000
H                  7.1097420000      1.4085650000      1.2389840000
C                 -1.6662970000     -0.5318080000      0.8230480000
C                 -1.0402720000      2.3204500000      0.5254730000
H                  6.6866560000      3.7991590000      1.8065930000
H                 -1.7069020000     -0.1826490000      1.8659970000
H                 -1.6928070000     -1.6242550000      0.8116320000
H                 -2.5708660000     -0.1440360000      0.3306400000
H                 -0.6287280000      3.3027490000      0.2834370000
H                 -1.1553210000      2.2491070000      1.6182260000
H                 -2.0528520000      2.2439530000      0.1016420000
$end
$rem
   MAX_SCF_CYCLES=200
   BASIS  =  6-311++G(d,p)
   GUI  =  2
   JOB_TYPE  =  SP
   METHOD  =  B3LYP
   SOLVENT_METHOD = PCM
$end
$pcm
   theory = CPCM
$end
$solvent
   dielectric 37.219
   opticaldielectric 1.43
$end





