$molecule
-2 1
C                  1.2354580000      1.6765060000     -0.6761900000
C                  0.0418290000      1.2607710000      0.0258000000
C                 -0.3174080000     -0.0743280000      0.1380160000
C                  0.4691450000     -1.1582820000     -0.4224700000
C                  1.6487450000     -0.7838540000     -1.1376320000
C                  2.0152180000      0.5951260000     -1.2235570000
O                  1.5663820000      2.9159530000     -0.7715070000
O                  0.0832030000     -2.3917070000     -0.2930600000
S                  3.5519960000      1.1243510000     -1.9554630000
C                  4.4451490000      2.0496200000     -0.6599510000
C                  4.2419480000      3.4219740000     -0.4768370000
C                  5.3488650000      1.3526280000      0.1437210000
C                  6.0586530000      2.0240450000      1.1379980000
C                  4.9590120000      4.0857560000      0.5203640000
C                  5.8646360000      3.3976290000      1.3298680000
O                  3.3877140000      2.0567710000     -3.0958080000
O                  4.4369780000     -0.0451520000     -2.2102230000
H                  3.5197130000      3.9257810000     -1.1010450000
H                  5.4893300000      0.2925610000     -0.0303350000
H                  4.8004330000      5.1504290000      0.6708470000
H                  6.7625180000      1.4785290000      1.7608060000
C                 -1.5846000000     -0.4709730000      0.8601560000
C                 -0.7969950000      2.3567890000      0.6417520000
H                  6.4116290000      3.9233210000      2.1083210000
H                 -2.4499040000      0.1213880000      0.5319890000
H                 -1.5018350000     -0.3281020000      1.9493480000
H                 -1.7650640000     -1.5318050000      0.6714260000
H                 -1.7826510000      2.4519220000      0.1589220000
H                 -0.2678600000      3.3049510000      0.5243510000
H                 -0.9894700000      2.1809680000      1.7101170000
C                  2.3784610000     -1.9191610000     -1.8179270000
H                  1.7043800000     -2.7794660000     -1.8036110000
H                  3.3042860000     -2.2033780000     -1.3002450000
H                  2.6699670000     -1.6771820000     -2.8436390000
$end
$rem
   MAX_SCF_CYCLES=200
   BASIS  =  6-311++G(d,p)
   GUI  =  2
   JOB_TYPE  =  SP
   METHOD  =  B3LYP
   SOLVENT_METHOD = PCM
$end
$pcm
   theory = CPCM
$end
$solvent
   dielectric 37.219
   opticaldielectric 1.43
$end





