$molecule
-2 1
C                  4.7652990000     -3.0783630000      0.3361300000
C                  5.6767100000     -2.2857210000     -0.3207360000
C                  5.2549490000     -1.0814170000     -0.9522380000
C                  3.3846610000     -2.7245030000      0.4061700000
C                  2.9576650000     -1.5036020000     -0.2339830000
C                  3.9272720000     -0.7149960000     -0.9006540000
C                  2.4475060000     -3.5317320000      1.0776180000
C                  1.0887980000     -3.1514920000      1.1258550000
C                  0.6562700000     -1.9330070000      0.4910060000
C                  1.5816040000     -1.0823460000     -0.2036450000
C                  0.1318010000     -4.0107710000      1.8420290000
C                 -1.2115050000     -3.5853210000      1.8266400000
C                 -0.7395180000     -1.5638350000      0.5614690000
C                 -1.6407410000     -2.3623970000      1.2088500000
O                  2.8853220000     -4.6855510000      1.6723610000
O                  1.2036010000      0.0205340000     -0.7818970000
O                  0.5443280000     -5.0724510000      2.4558110000
H                  5.0752980000     -3.9977070000      0.8199090000
H                  6.7235950000     -2.5790660000     -0.3587850000
H                  5.9786310000     -0.4573500000     -1.4710480000
H                  2.0457020000     -5.0647630000      2.0925050000
O                 -1.1530130000     -0.4019020000     -0.0323260000
H                 -2.6824160000     -2.0764490000      1.2511090000
H                 -0.3041360000     -0.0202040000     -0.4382030000
H                  3.5726800000      0.1959600000     -1.3710630000
S                 -2.4427200000     -4.5815310000      2.5778580000
O                 -3.7120250000     -3.8440440000      2.5987890000
O                 -2.4775950000     -5.9696800000      2.0916620000
O                 -2.0537270000     -4.6909680000      4.2129750000
C                 -1.3819570000     -5.8773110000      4.6678410000
H                 -0.4694940000     -6.0370850000      4.0924450000
H                 -2.0434880000     -6.7465450000      4.5936840000
H                 -1.1476900000     -5.6787760000      5.7175090000
$end
$rem
   MAX_SCF_CYCLES=200
   BASIS  =  6-311++G(d,p)
   GUI  =  2
   JOB_TYPE  =  SP
   METHOD  =  B3LYP
   SOLVENT_METHOD = COSMO
$end
$solvent
   dielectric 37.219
   opticaldielectric 1.43
$end





