%chk=141-rad.chk
%nproc=8
%mem=30GB
#P UB3LYP/6-311++G(d,p) nosym  opt freq SCRF=(PCM,Solvent=n,n-DiMethylFormamide)

Radical

-1 2
C                 -3.2802860000      3.5961180000      0.0854890000
C                 -4.5065600000      2.9561540000      0.0920170000
C                 -4.5474780000      1.5437100000      0.0687320000
C                 -2.0667310000      2.8839230000      0.0563890000
C                 -2.1207910000      1.4569750000      0.0330700000
C                 -3.3747250000      0.8153750000      0.0398470000
C                 -0.8037610000      3.6218430000      0.0509810000
C                  0.4121070000      2.8067370000      0.0199520000
C                  0.3580470000      1.3797890000     -0.0033660000
C                 -0.9049210000      0.6418660000      0.0021970000
C                  1.6660380000      3.4483400000      0.0130270000
C                  2.8387890000      2.7200060000     -0.0160030000
C                  2.7978720000      1.3075620000     -0.0392900000
C                  1.5716000000      0.6675970000     -0.0326190000
O                 -0.7634140000      4.8784560000      0.0716210000
O                 -0.9452710000     -0.6147420000     -0.0187030000
H                 -3.4014950000     -0.2672890000      0.0218720000
H                  1.5131170000     -0.4147870000     -0.0500360000
H                 -3.2218020000      4.6785010000      0.1029120000
H                  1.6928090000      4.5310030000      0.0310110000
O                  4.0179180000      3.4477520000     -0.0209500000
O                 -5.7266090000      0.8159650000      0.0735280000
C                 -6.9482170000      1.5219910000      0.0951480000
C                  5.2395230000      2.7417190000     -0.0424940000
H                 -5.4155630000      3.5440120000      0.1148470000
H                  3.7068750000      0.7197080000     -0.0622360000
H                 -7.7345910000      0.7656680000      0.0916220000
H                 -7.0670090000      2.1646790000     -0.7868080000
H                 -7.0506030000      2.1389250000      0.9973430000
H                  6.0259010000      3.4980400000     -0.0390020000
H                  5.3419320000      2.1247240000     -0.9446440000
H                  5.3582880000      2.0990900000      0.8395080000


