$molecule
-2 1
C                 -0.5597960000      0.1460210000      2.1187750000
C                 -0.5500200000     -0.9598560000      1.1869220000
C                  0.1710760000     -0.9543360000      0.0140060000
C                  1.0147790000      0.1413690000     -0.4241800000
C                  1.0166060000      1.2762720000      0.4988550000
C                  0.2364390000      1.2393410000      1.6918580000
O                 -1.2250280000      0.1057700000      3.2302400000
O                  1.6182230000      0.0869660000     -1.5452630000
H                 -1.1519180000     -1.8292830000      1.4567670000
H                  0.1387050000     -1.8122350000     -0.6578850000
C                  1.8219510000      2.4580290000      0.1756290000
C                  1.2333910000      3.9261260000      0.3692520000
C                 -0.2978720000      4.0019310000      0.2347040000
C                  1.6779040000      4.4730070000      1.7442790000
C                  1.8555240000      4.8228870000     -0.7204590000
O                  2.9701670000      2.4058390000     -0.2724710000
H                 -0.6137840000      3.6282770000     -0.7448400000
H                 -0.6314750000      5.0454730000      0.3273970000
H                 -0.8073690000      3.4009530000      0.9875160000
H                  1.2207920000      3.9228770000      2.5692950000
H                  1.3989000000      5.5333600000      1.8463050000
H                  2.7654330000      4.3987610000      1.8459050000
H                  1.5669200000      4.4786920000     -1.7186350000
H                  2.9450610000      4.7972030000     -0.6694320000
H                  1.5131560000      5.8598920000     -0.5997590000
H                  0.2978540000      2.0652850000      2.3945600000
$end

$rem
   BASIS  =  6-311++G(d,p)
   GUI  =  2
   JOB_TYPE  =  SP
   METHOD  =  B3LYP
   SCF_CONVERGENCE  = 8
   SOLVENT_METHOD = sm12
$end

$smx
   solvent dimethylformamide
   charges CM5
$end





