$molecule
-1 2
C                  7.1058690000     -1.8445370000     -0.6053590000
C                  7.6298100000     -0.8061910000     -1.4459670000
C                  6.7780910000      0.2786980000     -1.8640640000
C                  5.4785640000      0.2900140000     -1.4440280000
C                  4.9163830000     -0.7149880000     -0.6125490000
C                  5.7160980000     -1.8065340000     -0.1729180000
C                  5.1273230000     -2.8362910000      0.6833530000
C                  3.7051320000     -2.6734380000      1.0457410000
C                  2.9250330000     -1.5806170000      0.5987380000
C                  3.5083500000     -0.5470370000     -0.2579910000
C                  3.1001620000     -3.6454530000      1.8699190000
C                  1.7720540000     -3.5422600000      2.2396990000
C                  0.9980570000     -2.4523770000      1.7925840000
C                  1.5718880000     -1.4894670000      0.9845240000
O                  5.7510210000     -3.8368040000      1.1224140000
O                  2.8277280000      0.4280270000     -0.6618260000
H                  4.8092850000      1.0906790000     -1.7392240000
H                  3.7174430000     -4.4725640000      2.1994410000
H                  1.0056360000     -0.6388900000      0.6231330000
C                  7.3024710000      1.3842070000     -2.7477910000
H                 -0.0452790000     -2.3711920000      2.0829580000
C                  8.9839990000     -0.8604640000     -1.8564920000
C                  8.0039380000     -2.8811420000     -0.2336030000
C                  9.3193330000     -2.8966600000     -0.6561420000
C                  9.8390360000     -1.8816040000     -1.4802720000
C                 11.2798870000     -1.9141680000     -1.9320490000
H                  1.3241770000     -4.3008760000      2.8749310000
H                  8.1374390000      1.9220610000     -2.2820890000
H                  6.5117060000      2.1087680000     -2.9532590000
H                  7.6670540000      1.0038060000     -3.7099470000
H                  9.3675900000     -0.0696730000     -2.4918790000
H                  7.6210830000     -3.6676140000      0.3983340000
H                  9.9645270000     -3.7138100000     -0.3424380000
H                 11.5159480000     -1.0571120000     -2.5684060000
H                 11.5008530000     -2.8240920000     -2.5018740000
H                 11.9679780000     -1.8959480000     -1.0789390000
$end
$rem
   MAX_SCF_CYCLES=200
   BASIS  =  6-311++G(d,p)
   GUI  =  2
   JOB_TYPE  =  SP
   METHOD  =  B3LYP
   SOLVENT_METHOD = COSMO
$end
$solvent
   dielectric 37.219
   opticaldielectric 1.43
$end





