$molecule
-2 1
Cl                -2.5586870000      1.7714730000      0.7039090000
C                 -1.1104380000      0.7749960000      0.4004050000
C                 -1.1699070000     -0.6171740000      0.5381180000
Cl                -2.6954240000     -1.4088030000      1.0185330000
C                 -0.0648810000     -1.5108100000      0.3182940000
O                 -0.1196250000     -2.7799100000      0.4439950000
C                  1.1102220000     -0.7749440000     -0.0628240000
C                  1.1700060000      0.6173700000     -0.2006340000
Cl                 2.6955870000      1.4084640000     -0.6809710000
C                  0.0650020000      1.5108480000      0.0191650000
O                  0.1193900000      2.7799310000     -0.1063840000
Cl                 2.5587550000     -1.7714410000     -0.3663620000
$end
$rem
   MAX_SCF_CYCLES=200
   BASIS  =  6-311++G(d,p)
   GUI  =  2
   JOB_TYPE  =  SP
   METHOD  =  B3LYP
   SOLVENT_METHOD = COSMO
$end
$solvent
   dielectric 37.219
   opticaldielectric 1.43
$end





