%chk=279-rad.chk
%nproc=8
%mem=30GB
#P UB3LYP/6-311++G(d,p) nosym  opt freq

Radical

-1 2
O                 -1.2700770000      2.5194540000      0.3349210000
C                 -1.2449270000      1.2683810000      0.2183660000
C                 -2.4379540000      0.4672580000      0.1937360000
C                 -2.3862030000     -0.8990090000      0.0637930000
O                 -3.5092270000     -1.6695690000      0.0393280000
C                 -1.1572430000     -1.6496620000     -0.0583640000
O                 -1.2337210000     -2.9171460000     -0.1745090000
C                  0.0733580000     -0.8840650000     -0.0398760000
C                  1.3233010000     -1.5315670000     -0.1543650000
C                  2.5013350000     -0.8081450000     -0.1375740000
C                  2.4673510000      0.5945130000     -0.0050200000
C                  1.2496200000      1.2462920000      0.1084670000
C                  0.0382990000      0.5348800000      0.0942960000
H                 -3.3924470000      0.9746510000      0.2815020000
H                  1.3250370000     -2.6110950000     -0.2553220000
H                  3.4548620000     -1.3209320000     -0.2266380000
H                  3.3934450000      1.1615340000      0.0080060000
H                  1.1913430000      2.3241380000      0.2117090000
H                 -3.1366760000     -2.5727840000     -0.0606280000


