%chk=199-an.chk
%nproc=8
%mem=30GB
#P UB3LYP/6-311++G(d,p) nosym opt freq

Reduced

-2 1
O                 -4.3547230000      1.0093280000     -1.6108840000
C                 -3.1843570000      0.5747910000     -0.9720540000
C                 -1.9358120000      0.9871470000     -1.3956180000
C                 -0.7576180000      0.5422970000     -0.7430520000
C                  0.5369510000      1.0057310000     -1.2273800000
O                  0.6394210000      1.8006750000     -2.2224010000
C                  1.6876180000      0.5035740000     -0.5045900000
C                  2.9873530000      0.8947390000     -0.8969820000
C                  4.1271640000      0.4536100000     -0.2519310000
C                  3.9966670000     -0.4348450000      0.8585330000
C                  2.7548060000     -0.8446850000      1.2789300000
C                  1.5537420000     -0.4044100000      0.6303490000
C                  0.2902360000     -0.8150370000      1.0502270000
O                  0.1703160000     -1.6782680000      2.1287360000
C                 -0.8693360000     -0.3518860000      0.3762980000
C                 -2.1848920000     -0.7735950000      0.8066830000
O                 -2.3959260000     -1.5903890000      1.8201080000
C                 -3.3110770000     -0.2960070000      0.1176180000
O                 -4.5352050000     -0.7442040000      0.5883780000
H                 -4.0565200000      1.5893730000     -2.3185260000
H                 -1.8144550000      1.6627180000     -2.2386270000
H                  3.0475000000      1.5707890000     -1.7450270000
H                  5.1122480000      0.7762760000     -0.5822490000
H                  4.8873060000     -0.7898340000      1.3754230000
H                  2.6527150000     -1.5196870000      2.1223830000
H                 -0.8138510000     -1.8153730000      2.2263770000
H                 -4.2302710000     -1.3128290000      1.3292750000


