$molecule
-1 2
C                  1.1984260000      4.2487950000      5.3430360000
C                  1.4567570000      4.0030820000      3.9374910000
C                  0.9755860000      2.9123800000      3.2861320000
C                  0.1608760000      1.9022530000      3.9385210000
C                 -0.0875850000      2.1342340000      5.3564710000
C                  0.4007750000      3.2391910000      6.0321680000
O                  1.6299790000      5.2692360000      5.9359020000
O                 -0.3043540000      0.9233970000      3.3085790000
H                  2.0572540000      4.7495740000      3.4263930000
H                  1.1728370000      2.7457690000      2.2315530000
S                 -1.0857910000      0.8926350000      6.2053020000
C                  0.2338510000      3.5102970000      7.5028350000
O                  1.0108020000      3.1658090000      8.3562440000
O                 -0.8490080000      4.2822440000      7.7420170000
C                 -1.0707190000      4.6046760000      9.1194620000
H                 -1.9622550000      5.2307430000      9.1344630000
H                 -0.2166120000      5.1472270000      9.5297200000
H                 -1.2324090000      3.6928430000      9.6979490000
C                 -2.6804680000      0.8885330000      5.3371590000
C                 -2.9116430000     -0.0254480000      4.3133100000
C                 -3.6626990000      1.7865980000      5.7485500000
C                 -4.1595870000     -0.0386070000      3.6929950000
C                 -4.9041350000      1.7702650000      5.1151640000
C                 -5.1528300000      0.8569750000      4.0902180000
O                 -0.4983430000     -0.4450680000      6.0651840000
O                 -1.3778810000      1.4026610000      7.5586170000
H                 -2.1150560000     -0.6897120000      4.0096210000
H                 -3.4511190000      2.4761250000      6.5563720000
H                 -4.3524820000     -0.7446670000      2.8925090000
H                 -5.6762980000      2.4659030000      5.4258020000
H                 -6.1204470000      0.8452850000      3.5990190000
$end
$rem
   MAX_SCF_CYCLES=200
   BASIS  =  6-311++G(d,p)
   GUI  =  2
   JOB_TYPE  =  SP
   METHOD  =  B3LYP
   SOLVENT_METHOD = COSMO
$end
$solvent
   dielectric 37.219
   opticaldielectric 1.43
$end





