$molecule
-4 1
O                  5.9003620000     -1.6153980000      1.2598520000
S                  5.4585670000     -0.8856810000      0.0199110000
O                  6.2329570000      0.3927000000     -0.1565830000
O                  5.5038640000     -1.7525950000     -1.1983860000
C                  3.7202990000     -0.4064110000      0.2931750000
C                  3.4300010000      0.4256310000      1.4157720000
C                  2.1312560000      0.8151610000      1.6541820000
C                  1.0412380000      0.4260340000      0.8271940000
C                 -0.2946960000      0.8850130000      1.1557370000
O                 -0.5319270000      1.6344090000      2.1786030000
C                 -1.3355850000      0.4272930000      0.2528780000
C                 -2.6936930000      0.8015390000      0.4876580000
C                 -3.7212170000      0.4056200000     -0.3435180000
C                 -3.4308440000     -0.3969760000     -1.4874390000
C                 -2.1309470000     -0.7847810000     -1.7288200000
C                 -1.0422150000     -0.4171750000     -0.8892500000
C                  0.2936610000     -0.8897360000     -1.2089230000
O                  0.5304470000     -1.6518580000     -2.2201220000
C                  1.3362520000     -0.4251750000     -0.3108450000
C                  2.6932120000     -0.8115770000     -0.5348560000
S                 -5.4591970000      0.8622950000     -0.0255440000
O                 -5.9124270000      1.6824930000     -1.2013790000
O                 -6.2271260000     -0.4274410000      0.0669900000
O                 -5.4922980000      1.6385210000      1.2539650000
H                  4.2371220000      0.7392790000      2.0704170000
H                  1.8864140000      1.4482580000      2.5027580000
H                 -2.8995170000      1.4122700000      1.3583570000
H                 -4.2312830000     -0.6908290000     -2.1619580000
H                 -1.8888530000     -1.3960770000     -2.5943430000
H                  2.8961700000     -1.4448080000     -1.3901910000
$end
$rem
   MAX_SCF_CYCLES=200
   BASIS  =  6-311++G(d,p)
   GUI  =  2
   JOB_TYPE  =  SP
   METHOD  =  B3LYP
   SOLVENT_METHOD = COSMO
$end
$solvent
   dielectric 37.219
   opticaldielectric 1.43
$end





