%chk=298-an.chk
%nproc=8
%mem=30GB
#P UB3LYP/6-311++G(d,p) nosym opt freq SCF=YQC Int=Acc2E=11

Reduced

-2 1
 C                 -7.17075000    4.08544000    0.78484000
 C                 -8.15555200    3.39575300    0.10272600
 C                 -7.82284600    2.63102800   -1.03503800
 C                 -5.82438000    4.03840100    0.35956600
 C                 -5.48595900    3.26516000   -0.79070600
 C                 -6.50706000    2.57344900   -1.46573000
 C                 -4.79618600    4.76098000    1.07376700
 C                 -3.45180300    4.64807700    0.56144800
 C                 -3.08922300    3.91559500   -0.55109200
 C                 -4.09544000    3.17764900   -1.28284500
 O                 -4.98711500    5.48368000    2.11041600
 O                 -3.81004200    2.49057300   -2.30031100
 O                 -2.53449300    5.35500200    1.28630600
 C                 -1.65928300    3.85764100   -1.02438600
 C                 -0.87082200    2.65766400   -0.46302200
 C                  0.57351600    2.59928000   -0.97399400
 C                  1.38364400    1.41868800   -0.42417600
 C                  2.82814900    1.37010100   -0.93773700
 C                  3.64792900    0.19461100   -0.39127700
 C                  5.09002100    0.15691600   -0.91189400
 C                  5.91844800   -1.01359600   -0.36757900
 C                  7.35872100   -1.03363400   -0.89863100
 C                  8.17954200   -2.20137800   -0.34915000
 S                  9.89007500   -2.16549100   -1.02220800
 C                 10.59229000   -3.64689200   -0.18714600
 C                 12.05485600   -3.85096300   -0.58516400
 C                 12.68431200   -5.07804600    0.08977500
 C                 14.15185900   -5.29498000   -0.29981500
 C                 14.79053800   -6.51809200    0.36948900
 C                 16.25804500   -6.73498300   -0.01934900
 C                 16.89672300   -7.95799400    0.65053600
 C                 18.36410400   -8.17597200    0.26299800
 C                 19.00137600   -9.39946600    0.93407000
 C                 20.46673400   -9.61663000    0.54701800
 H                 -7.40169800    4.67966700    1.66202700
 H                 -9.18652700    3.44150000    0.44281200
 H                 -8.59666100    2.08855600   -1.57054400
 H                 -6.22181700    1.99289100   -2.33601400
 H                 -3.10004700    5.75849600    1.98224500
 H                 -1.14425500    4.78284100   -0.74485200
 H                 -1.66596200    3.78420700   -2.11672100
 H                 -1.39661900    1.73702100   -0.73810300
 H                 -0.87021800    2.71072500    0.63232300
 H                  1.08612300    3.53659200   -0.71675200
 H                  0.56402100    2.54908500   -2.07109500
 H                  0.87539200    0.48076200   -0.68341400
 H                  1.39156100    1.46583600    0.67287000
 H                  3.33332300    2.31081900   -0.68083600
 H                  2.81848200    1.32267700   -2.03481400
 H                  3.14563100   -0.74721000   -0.64828200
 H                  3.66047500    0.24135600    0.70563100
 H                  5.58995700    1.10055300   -0.65687800
 H                  5.07617800    0.10877700   -2.00862400
 H                  5.42311100   -1.95888600   -0.62416600
 H                  5.93610100   -0.96621100    0.72890500
 H                  7.85483400   -0.09094500   -0.64044300
 H                  7.34232200   -1.08730200   -1.99329800
 H                  7.71805400   -3.15543700   -0.62209100
 H                  8.23441800   -2.14999400    0.74266900
 H                  9.99463600   -4.51970200   -0.46820700
 H                 10.50699000   -3.50787000    0.89517200
 H                 12.62994500   -2.95564900   -0.32227300
 H                 12.12236400   -3.95927900   -1.67380000
 H                 12.10414000   -5.97317000   -0.16933200
 H                 12.61046600   -4.97117500    1.17977800
 H                 14.73049400   -4.39859800   -0.04099400
 H                 14.22432200   -5.40108200   -1.39013400
 H                 14.21162600   -7.41466000    0.11144200
 H                 14.71705800   -6.41265500    1.45991800
 H                 16.83715500   -5.83839100    0.23855800
 H                 16.33187300   -6.84076700   -1.10981600
 H                 16.31747700   -8.85443300    0.39268700
 H                 16.82242700   -7.85215600    1.74089500
 H                 18.94511800   -7.28086500    0.52073200
 H                 18.44042200   -8.28292900   -0.82693700
 H                 18.42067600  -10.29450400    0.67704300
 H                 18.92471800   -9.29331100    2.02366300
 H                 20.57655200   -9.76724300   -0.53306700
 H                 20.88937100  -10.49692500    1.04342100
 H                 21.08549000   -8.75620200    0.82653600






















