%chk=196-rad.chk
%nproc=8
%mem=30GB
#P UB3LYP/6-311++G(d,p) nosym opt freq

Radical

-1 2
C    -4.6068524767    0.3423538515   -0.0712847594
C    -3.1780208696   -0.0525037449   -0.0174702546
C    -2.8316863532   -1.3758492054   -0.0337887376
C    -1.4852913167   -1.8151948559    0.0153049620
O    -1.2320149668   -3.1560398060   -0.0055519379
C    -0.5500861928   -0.8033035779    0.0809020152
C     0.8753403573   -1.1266232180    0.1362489065
O     1.2165564131   -2.3280084660    0.1226222591
C     1.9276646134   -0.1132672557    0.2070521867
C     3.2551521151   -0.4846181236    0.2569198172
O     3.6863449086   -1.7789807171    0.2450574560
C     4.1913820845    0.5565589905    0.3232538936
C     3.8134567446    1.8689725599    0.3379235939
C     2.4930922322    2.2508134825    0.2886231867
C     1.5590113745    1.2364657556    0.2230182097
C     0.1403689565    1.5709393827    0.1682315839
O    -0.1750679028    2.8063735479    0.1838064984
C    -0.8834644216    0.5378027733    0.0982174959
C    -2.2168843359    0.9275585045    0.0485129125
H    -4.8910993357    0.3127395441   -1.1613428573
H    -5.1909499927   -0.4486304616    0.4579179960
H    -4.7890281538    1.3385107261    0.3668606634
H    -3.5927963536   -2.1442459137   -0.0858484382
H    -0.4109970816   -3.6568128744    0.0188075303
H     3.3350132561   -2.6546945733    0.2085639769
H     5.2284729956    0.2461645776    0.3617317761
H     4.5560140566    2.6679904653    0.3898932781
H     2.1913268278    3.2894722439    0.3001215641
H    -2.4349571824    1.9860563882    0.0641897472


