%chk=232-an-PCM.chk
%nproc=8
%mem=30GB
#P UB3LYP/6-311++G(d,p) SCRF=(PCM,Solvent=n,n-DiMethylFormamide)

Reduced 

-2 1
C                  5.9024280000     -5.2110920000      1.1205530000
C                  6.7903910000     -5.0839110000      0.0788610000
C                  6.5770690000     -4.0905330000     -0.9148510000
C                  4.7675890000     -4.3783030000      1.2427240000
C                  4.5492120000     -3.3611970000      0.2253580000
C                  5.4837970000     -3.2615140000     -0.8296050000
C                  3.8675640000     -4.5663820000      2.3706630000
C                  2.7764980000     -3.6576260000      2.3573070000
C                  2.5651150000     -2.6730530000      1.3725050000
C                  3.4135840000     -2.4517540000      0.2555530000
O                  4.0599510000     -5.4712170000      3.2775290000
O                  3.2170870000     -1.5456080000     -0.6491250000
H                  6.0410600000     -5.9606410000      1.8927420000
H                  5.2967590000     -2.4947300000     -1.5741640000
Cl                 7.7183690000     -3.9005840000     -2.2855860000
Cl                 8.2078600000     -6.1799290000     -0.0054100000
H                  2.0629170000     -3.7458710000      3.1777080000
H                  1.6929970000     -2.0228550000      1.4542890000





