$molecule
-2 1
C                  0.2951880000      3.9377870000      0.3229160000
C                 -0.8877440000      3.5721910000      0.9409060000
C                 -1.2740330000      2.2082490000      0.9585090000
C                  1.1421480000      2.9897170000     -0.2957470000
C                  0.7472290000      1.6071670000     -0.2854060000
C                 -0.4665820000      1.2615030000      0.3540870000
C                  2.3676270000      3.4440310000     -0.9468560000
C                  3.1438220000      2.3906290000     -1.5240340000
C                  2.7684080000      1.0139610000     -1.5107970000
C                  1.5537360000      0.5650420000     -0.9086780000
O                  2.6923980000      4.6887710000     -0.9681640000
O                  1.1807110000     -0.6734630000     -0.8865740000
H                  0.6215640000      4.9726770000      0.2884640000
H                 -1.5172190000      4.3257700000      1.4118590000
H                 -2.2027640000      1.9093830000      1.4426490000
H                 -0.7326020000      0.2088940000      0.3447530000
S                  4.6385920000      2.8601120000     -2.4203050000
C                  3.6426060000     -0.0508940000     -2.1260410000
H                  3.6724260000      0.0091420000     -3.2251880000
H                  3.2290690000     -1.0241720000     -1.8513550000
H                  4.6844890000      0.0284680000     -1.7897610000
C                  5.5768340000      3.8782640000     -1.2007690000
C                  6.7091970000      4.6274490000     -1.8997220000
H                  5.9739680000      3.2165790000     -0.4234150000
H                  4.8413750000      4.5594770000     -0.7681320000
H                  7.4017840000      3.9436130000     -2.4082330000
H                  7.2956860000      5.2106740000     -1.1793430000
H                  6.3137030000      5.3185510000     -2.6506320000
$end

$rem
   BASIS  =  6-311++G(d,p)
   GUI  =  2
   JOB_TYPE  =  SP
   METHOD  =  B3LYP
   SCF_CONVERGENCE  = 8
   SOLVENT_METHOD = sm12
$end

$smx
   solvent dimethylformamide
   charges CM5
$end





