%chk=281-rad.chk
%nproc=8
%mem=30GB
#P UB3LYP/6-311++G(d,p) nosym opt freq

Radical

-1 2
  C    3.3044001   -0.3117924   -0.1140623
  C    1.7993087   -0.4489681   -0.1578814
  C    0.9297225    0.7267446    0.1431783
  O    1.4346676    1.8037331    0.4260406
  C   -0.5479712    0.5924789    0.1001937
  C   -1.3844211    1.6885464    0.3806637
  C   -2.7732332    1.5455267    0.3358642
  C   -3.3400582    0.3120804    0.0119884
  C   -2.5205286   -0.7837383   -0.2684999
  C   -1.1205022   -0.6523022   -0.2266560
  C   -0.2346475   -1.8045306   -0.5214652
  O   -0.7160653   -2.8913451   -0.8067115
  C    1.2449606   -1.6434091   -0.4715299
  O    2.0470964   -2.7013186   -0.7423144
  H    3.7229698   -1.0096852    0.6417339
  H    3.6231003    0.7161049    0.1549890
  H    3.7324311   -0.5541406   -1.1098244
  H   -0.9656382    2.6543858    0.6341309
  H   -3.4111002    2.3926946    0.5526826
  H   -4.4165792    0.2046837   -0.0218418
  H   -2.9806306   -1.7317732   -0.5175683
  H    1.6980772   -3.5738485   -0.9711339






