$molecule
-1 2
C                  2.6102860000     -0.1804260000      0.7131090000
O                  1.8268020000      0.2338050000     -0.4042370000
C                  0.4531340000      0.1449460000     -0.2486360000
C                 -0.2889790000      1.2693750000     -0.4989140000
C                 -1.7359510000      1.2852590000     -0.4404910000
O                 -2.4119600000      2.3284180000     -0.6722590000
C                 -2.3504180000      0.0214710000     -0.0853050000
C                 -1.6079240000     -1.1029630000      0.1627650000
C                 -0.1648530000     -1.1380810000      0.0820960000
O                  0.5033140000     -2.1983510000      0.2693680000
H                  2.4066900000     -1.2215860000      0.9681150000
H                  3.6543230000     -0.0580000000      0.4143260000
H                  2.4100970000      0.4636700000      1.5812280000
H                  0.2165480000      2.1937530000     -0.7594060000
H                 -3.4352150000      0.0039900000     -0.0265590000
H                 -2.0858950000     -2.0452810000      0.4173600000
$end
$rem
   MAX_SCF_CYCLES=200
   BASIS  =  6-311++G(d,p)
   GUI  =  2
   JOB_TYPE  =  SP
   METHOD  =  B3LYP
   SOLVENT_METHOD = COSMO
$end
$solvent
   dielectric 37.219
   opticaldielectric 1.43
$end





