%chk=034-an.chk
%nproc=8
%mem=30GB
#P UB3LYP/6-311++G(d,p) nosym opt freq

Reduced

-2 1
C    -2.3969933518    1.3884315101    0.3015574997
C    -1.9659068948   -0.0581373770    0.4338090134
C    -2.7652071250   -0.9413534697   -0.4902297410
C    -0.5202770636   -0.1600129062    0.2376838073
C     0.2446630924   -0.5570632362    1.2430017937
C     1.6937037342   -0.6964890284    1.1669583894
O     2.3746875553   -1.0823402111    2.1665963729
C     2.3448883277   -0.3736635013   -0.1131898592
C     1.6058234203    0.0257240736   -1.1354897251
C     0.1576969253    0.1516517650   -1.0161414821
O    -0.5506544739    0.5350730777   -1.9980155192
C     3.8081298219   -0.4993572674   -0.2388049105
H    -1.9083936822    1.8212653390   -0.5961026475
H    -3.4940905740    1.4511184251    0.1874457912
H    -2.0043371208    1.9445581391    1.1688785257
H    -2.2133832534   -0.3659414735    1.4674856335
H    -3.1458114736   -0.4183592818   -1.3803655422
H    -2.1587944090   -1.8198895466   -0.7679015342
H    -3.6709071600   -1.3504853010    0.0334485339
H    -0.1987151085   -0.8057336653    2.2079369700
H     2.1036717215    0.2607946582   -2.0762898232
H     4.2910084433   -0.4464530921    0.7537974520
H     4.2652855032    0.2945086529   -0.8716468454
H     4.1039131456   -1.4787387501   -0.6844221529


