%chk=295-rad.chk
%nproc=8
%mem=30GB
#P UB3LYP/6-311++G(d,p) nosym opt freq

Radical

-1 2
C         -1.17986        2.00713       -0.46231
C         -2.23459        1.51047        0.30427
C         -2.07655        0.32460        1.02032
C          0.03628        1.31309       -0.51020
C          0.19817        0.13077        0.20130
C         -0.86372       -0.36576        0.97004
C          1.14303        1.83874       -1.31455
C          2.42948        1.08957       -1.33432
C          2.61014       -0.05447       -0.65413
C          1.47548       -0.60634        0.15558
O          1.04900        2.87398       -1.96817
O          1.59156       -1.65644        0.77915
H         -1.30876        2.93367       -1.01933
H         -3.17942        2.04844        0.34316
H         -2.89777       -0.06414        1.61885
H         -0.75023       -1.29126        1.53276
O          3.42238        1.66177       -2.10997
C          3.86237       -0.91044       -0.58292
C          5.13228       -0.42797       -1.29389
C          6.29423       -1.40398       -1.08154
C          7.56872       -0.90150       -1.76210
C          8.72960       -1.87809       -1.56742
C         10.00860       -1.35464       -2.22312
C         11.16900       -2.33518       -2.04640
C         12.45082       -1.79798       -2.68539
C         13.61029       -2.78171       -2.52260
C         14.88074       -2.23478       -3.15111
Br        16.32992       -3.51577       -2.93054
H          3.02049        2.47374       -2.48988
H          3.61174       -1.90434       -0.97785
H          4.11275       -1.04743        0.47803
H          5.42108        0.55805       -0.91062
H          4.94537       -0.33311       -2.37008
H          6.02496       -2.38861       -1.48263
H          6.47822       -1.53063       -0.00776
H          7.84045        0.07856       -1.35129
H          7.38305       -0.76210       -2.83408
H          8.46622       -2.85186       -1.99787
H          8.90418       -2.03424       -0.49594
H         10.27573       -0.38620       -1.78281
H          9.83122       -1.18553       -3.29222
H         10.90733       -3.29893       -2.49987
H         11.33920       -2.51570       -0.97805
H         12.71588       -0.83853       -2.22452
H         12.27832       -1.60770       -3.75177
H         13.34510       -3.74038       -2.98590
H         13.77554       -2.98138       -1.45639
H         15.20797       -1.30753       -2.67279
H         14.76882       -2.07170       -4.22650







