%chk=329-an.chk
%nproc=8
%mem=30GB
#P UB3LYP/6-311++G(d,p) nosym opt freq SCF=YQC

Reduced

-2 1
C         -0.64631        2.66796       -0.95631
C         -1.74105        2.04190       -0.35378
C         -1.61437        0.75105        0.16558
C          0.58710        2.00260       -1.04287
C          0.71549        0.69549       -0.51702
C         -0.39206        0.07773        0.08580
C          1.69097        2.62197       -1.64524
C          2.92449        1.95365       -1.73050
C          3.05206        0.65083       -1.20627
C          1.94588        0.02906       -0.60219
C          4.10203        2.60077       -2.36712
C          5.39789        1.87265       -2.44534
C          5.51009        0.63249       -1.94353
C          4.36096       -0.04373       -1.30302
O          4.01210        3.72949       -2.82756
O          4.50336       -1.17281       -0.85838
O          6.47915        2.44591       -3.02075
H         -0.76327        3.66928       -1.35350
H         -2.68993        2.55861       -0.28926
H         -2.46556        0.27117        0.63110
H         -0.31268       -0.92281        0.49407
H          1.58943        3.62355       -2.04722
H          2.04201       -0.97245       -0.19859
H          6.46170        0.11150       -2.00689
H          6.45282        3.33641       -3.39747





