$molecule
-2 1
C                  4.2342530000     -0.0282110000     -0.0472460000
S                  3.0226430000     -1.3299990000     -0.4799080000
C                  1.4449140000     -0.4840880000     -0.2430110000
C                  1.3294620000      0.9070300000     -0.0699660000
C                  0.0895350000      1.5818000000      0.1032330000
O                 -0.0094590000      2.8553000000      0.2759600000
C                 -1.0773950000      0.7020020000      0.0851100000
C                 -2.3696250000      1.2443010000      0.2583030000
C                 -3.5080630000      0.4564080000      0.2492510000
C                 -3.3851990000     -0.9444270000      0.0571700000
C                 -2.1332500000     -1.5048110000     -0.1180800000
C                 -0.9514990000     -0.7245670000     -0.1084690000
C                  0.3348590000     -1.3773620000     -0.2990890000
O                  0.4607420000     -2.6414890000     -0.5109120000
H                  4.2047760000      0.8129230000     -0.7430130000
H                  5.2251970000     -0.4882060000     -0.1036000000
H                  4.0726010000      0.3470070000      0.9687200000
H                  2.2120930000      1.5371050000     -0.0337780000
H                 -2.4253730000      2.3197450000      0.4009450000
H                 -4.4903230000      0.9062630000      0.3862720000
H                 -4.2738170000     -1.5742120000      0.0454930000
H                 -2.0070720000     -2.5725100000     -0.2715190000
$end
$rem
   MAX_SCF_CYCLES=200
   BASIS  =  6-311++G(d,p)
   GUI  =  2
   JOB_TYPE  =  SP
   METHOD  =  B3LYP
   SOLVENT_METHOD = COSMO
$end
$solvent
   dielectric 37.219
   opticaldielectric 1.43
$end





