$molecule
-1 2
O                  3.8942320000      2.7313040000      1.0064330000
C                  3.0060970000      1.8829030000      1.0399140000
N                  2.9229890000      0.9047170000      2.0009290000
C                  1.9419770000     -0.1283600000      2.1401550000
O                  2.0639320000     -0.9032030000      3.0855430000
C                  0.9170300000     -0.1131020000      1.1189970000
N                 -0.0794610000     -1.0448940000      1.1351490000
C                 -0.9960250000     -0.9553500000      0.1409490000
C                 -2.0659800000     -1.8855890000      0.0833500000
C                 -3.0220840000     -1.8237640000     -0.9203700000
C                 -2.9505990000     -0.8313900000     -1.9082980000
C                 -1.9108370000      0.0985150000     -1.8798320000
C                 -0.9313740000      0.0602670000     -0.8782960000
N                  0.0873440000      0.9955910000     -0.8761660000
C                  0.9589800000      0.8781070000      0.1037560000
N                  1.9930250000      1.8192760000      0.1145660000
H                  3.6466270000      0.9094690000      2.7053370000
H                 -2.1047100000     -2.6459290000      0.8559820000
H                 -3.8301560000     -2.5492510000     -0.9394810000
H                 -3.6996620000     -0.7852290000     -2.6922960000
H                 -1.8331640000      0.8763050000     -2.6328870000
H                  1.9918190000      2.5096070000     -0.6223970000
$end
$rem
   MAX_SCF_CYCLES=200
   BASIS  =  6-311++G(d,p)
   GUI  =  2
   JOB_TYPE  =  SP
   METHOD  =  B3LYP
   SOLVENT_METHOD = COSMO
$end
$solvent
   dielectric 37.219
   opticaldielectric 1.43
$end





