%chk=088.chk
%nproc=8
%mem=30GB
#P UB3LYP/6-311++G(d,p) nosym opt freq

Oxidized

0 1
C                  1.5804060000      1.2377460000     -0.6698990000
C                  0.3331030000      1.7327120000     -0.1367860000
C                 -0.6679090000      0.8919270000      0.2872680000
C                 -0.5428640000     -0.5452450000      0.2296410000
C                  0.7358950000     -1.0911060000     -0.3176840000
C                  1.7429350000     -0.2456480000     -0.7431340000
O                  2.4942150000      1.9914660000     -1.0580440000
O                 -1.4441210000     -1.3165930000      0.6124660000
O                  2.9938800000     -0.4559890000     -1.2740900000
C                  3.6693430000     -1.6427540000     -1.5725770000
Br                 0.1790870000      3.6432210000     -0.0659640000
Br                -2.3288480000      1.5366740000      0.9977290000
H                  4.6295480000     -1.3210930000     -1.9832020000
H                  3.1570300000     -2.2475110000     -2.3298170000
H                  3.8634510000     -2.2586030000     -0.6869640000
O                  0.6057580000     -2.4591930000     -0.2701420000
C                  1.4932910000     -3.4727920000     -0.6420190000
H                  0.9644200000     -4.4023720000     -0.4177860000
H                  2.4246030000     -3.4594710000     -0.0639910000
H                  1.7305470000     -3.4622840000     -1.7123460000























