%chk=283.chk
%nproc=8
%mem=30GB
#P UB3LYP/6-311++G(d,p) nosym opt freq

Oxidized

0 1
C         -2.00411        3.11584        0.14518
C         -3.16454        2.34166        0.11529
C         -3.07356        0.95524       -0.00103
C         -0.74961        2.49802        0.05822
C         -0.65417        1.11682       -0.05779
C         -1.82201        0.34193       -0.08755
C          0.46748        3.31409        0.08993
C          1.78722        2.63136       -0.00378
C          1.90460        1.29810       -0.11640
C          0.66298        0.45853       -0.14985
O          0.43782        4.53759        0.19087
O          0.72395       -0.76255       -0.25211
H         -2.08108        4.19804        0.23615
H         -4.13947        2.81976        0.18273
H         -3.97727        0.34983       -0.02450
H         -1.76140       -0.74167       -0.17816
C          3.17832        0.47819       -0.21981
O          2.88221        3.47652        0.03410
H          3.12669       -0.10261       -1.15090
H          3.17550       -0.24807        0.60449
H          2.50992        4.38167        0.11884
C          4.53142        1.19933       -0.19752
C          5.69149        0.20487       -0.31115
C          7.04122        0.92213       -0.28887
C          8.19628       -0.05999       -0.40101
H          4.63854        1.76310        0.73682
H          4.59011        1.90865       -1.03161
H          5.59524       -0.36792       -1.24157
H          5.64325       -0.51282        0.51689
H          7.14410        1.49343        0.64105
H          7.09629        1.63800       -1.11724
H          8.18908       -0.77082        0.43145
H          9.15123        0.47448       -0.38303
H          8.14101       -0.62547       -1.33669









