%chk=181-rad.chk
%nproc=8
%mem=30GB
#P UB3LYP/6-311++G(d,p) nosym  opt freq SCRF=(PCM,Solvent=n,n-DiMethylFormamide)

Radical

-1 2
N                 -2.5952010000     -2.2632240000      0.5742350000
C                 -2.3396330000     -0.9472160000      0.2107520000
C                 -3.4177120000     -0.0945440000     -0.0247130000
C                 -3.2152200000      1.2504170000     -0.3275990000
C                 -1.9396750000      1.7935300000     -0.3827810000
O                 -1.8036780000      3.1310540000     -0.6851050000
C                 -0.7950480000      0.9788490000     -0.1508190000
C                  0.5567440000      1.5450950000     -0.1865440000
O                  0.7919650000      2.7776870000     -0.3205640000
C                  1.6765930000      0.6098190000     -0.0526980000
C                  3.0003100000      1.0988140000     -0.1371950000
C                  4.0857930000      0.2530110000     -0.0254190000
C                  3.8812280000     -1.1278640000      0.1817780000
C                  2.5969700000     -1.6264420000      0.2728610000
C                  1.4719530000     -0.7761120000      0.1584940000
C                  0.1308330000     -1.3372130000      0.2681010000
O                 -0.0023370000     -2.5906990000      0.4719760000
C                 -1.0010400000     -0.4328440000      0.1224410000
H                 -3.4831990000     -2.6379880000      0.2732600000
H                 -1.7822750000     -2.8717060000      0.5011460000
H                 -4.4276760000     -0.4879200000      0.0322690000
H                 -4.0737720000      1.8908770000     -0.5168730000
H                 -2.6880290000      3.4870510000     -0.8383790000
H                  3.1384990000      2.1611280000     -0.2959730000
H                  5.0939890000      0.6468930000     -0.0972800000
H                  4.7323240000     -1.7952070000      0.2709890000
H                  2.4212930000     -2.6832490000      0.4336410000





