$molecule
-1 2
C                  3.2917220000     -0.2727640000     -0.1038390000
C                  1.7932050000     -0.4018260000     -0.1454660000
C                  0.9703100000      0.7520480000      0.1498850000
O                  1.4632910000      1.8722720000      0.4437060000
C                 -0.4962980000      0.5642640000      0.0932160000
C                 -1.3450560000      1.6500540000      0.3707240000
C                 -2.7234210000      1.5145100000      0.3278730000
C                 -3.2964630000      0.2688840000      0.0009700000
C                 -2.4837900000     -0.8146960000     -0.2763690000
C                 -1.0777670000     -0.6938280000     -0.2371740000
C                 -0.2278770000     -1.8290100000     -0.5277700000
O                 -0.6394150000     -2.9965630000     -0.8335620000
C                  1.1959840000     -1.6030130000     -0.4612980000
O                  1.9407840000     -2.7110970000     -0.7454150000
H                  3.7335620000     -0.9681970000      0.6197820000
H                  3.5565610000      0.7479830000      0.1743920000
H                  3.7412870000     -0.5065290000     -1.0762790000
H                 -0.8773550000      2.5959940000      0.6193150000
H                 -3.3620380000      2.3655210000      0.5456480000
H                 -4.3769040000      0.1612060000     -0.0330090000
H                 -2.9004110000     -1.7829140000     -0.5302990000
H                  1.2456480000     -3.3821710000     -0.9234540000
$end

$rem
   BASIS  =  6-311++G(d,p)
   GUI  =  2
   JOB_TYPE  =  SP
   METHOD  =  B3LYP
   SCF_CONVERGENCE  = 8
   SOLVENT_METHOD = sm12
$end

$smx
   solvent dimethylformamide
   charges CM5
$end





