$molecule
0 1
Br                -2.3132430000      2.1146500000      0.8005650000
C                 -1.0057420000      0.8238420000      0.3372390000
C                 -1.3499900000     -0.4873660000      0.2662460000
Br                -3.0865620000     -1.1501930000      0.6044860000
C                 -0.3484000000     -1.5174910000     -0.0942990000
O                 -0.5933640000     -2.6930980000     -0.1733670000
C                  1.1050700000     -1.0311370000     -0.3856920000
O                  1.9405970000     -1.8451710000     -0.6815870000
C                  1.3694640000      0.4224940000     -0.2783140000
C                  0.3790580000      1.2870980000      0.0602240000
Br                 0.7526550000      3.1405100000      0.1886050000
Br                 3.1504580000      0.9358630000     -0.6441060000
$end

$rem
   BASIS  =  6-311++G(d,p)
   GUI  =  2
   JOB_TYPE  =  SP
   METHOD  =  B3LYP
   SCF_CONVERGENCE  = 8
   SOLVENT_METHOD = sm12
$end

$smx
   solvent dimethylformamide
   charges CM5
$end





