%chk=081-PCM.chk
%nproc=8
%mem=30GB
#P UB3LYP/6-311++G(d,p) SCRF=(PCM,Solvent=n,n-DiMethylFormamide)

Quinone PCM in DMF 

0 1
C                  1.0834220000      1.4374030000     -3.0060750000
C                 -0.2879700000      1.6457930000     -3.5298770000
C                 -1.2365000000      0.7185870000     -3.3626270000
C                 -0.9538790000     -0.5521540000     -2.6526790000
C                  0.4232050000     -0.7786590000     -2.1018640000
O                  1.9438460000      2.2907080000     -3.1516330000
O                 -1.8259260000     -1.3958240000     -2.5242790000
H                 -0.4625040000      2.5863800000     -4.0406100000
C                  1.3735250000      0.1621420000     -2.2902140000
C                  2.7668160000      0.0599790000     -1.6821330000
C                  3.9071570000     -0.3006880000     -2.5632950000
C                  5.2534360000     -0.1434480000     -2.1443390000
C                  3.6325260000     -0.8236600000     -3.8375210000
C                  6.2592110000     -0.5258270000     -3.0371450000
C                  5.9730140000     -1.0553080000     -4.2930070000
C                  4.6503300000     -1.2084880000     -4.6993870000
O                  2.8722120000      0.2841590000     -0.4905730000
C                  5.6504330000      0.4263630000     -0.8063200000
H                  2.6022270000     -0.9386270000     -4.1518610000
H                  7.2942000000     -0.4023840000     -2.7368310000
H                  6.7838410000     -1.3427760000     -4.9532450000
H                  4.4153840000     -1.6167600000     -5.6751760000
C                  0.6313340000     -2.0727240000     -1.3740820000
H                 -2.2498780000      0.8379020000     -3.7296520000
H                 -0.0021010000     -2.1055350000     -0.4827850000
H                  1.6668240000     -2.2075270000     -1.0669480000
H                  0.3227260000     -2.9135500000     -2.0003780000
H                  5.1609800000      1.3833590000     -0.6150950000
H                  6.7322610000      0.5689150000     -0.7684730000
H                  5.3539800000     -0.2328520000      0.0123950000





