$molecule
-2 1
C                 -4.1724830000      3.5187030000      1.5292550000
C                 -4.6892190000      3.6661470000      0.2598200000
C                 -4.0879320000      3.0109170000     -0.8425750000
C                 -2.9744450000      2.2103490000     -0.6156410000
C                 -2.4179170000      2.0225220000      0.6571600000
C                 -3.0398780000      2.6974390000      1.7777240000
C                 -2.5261960000      2.5374460000      3.1037640000
C                 -1.3802720000      1.6962310000      3.2206750000
C                 -0.7591300000      1.0441520000      2.1627580000
C                 -1.2324560000      1.1637680000      0.8200450000
O                 -2.9923190000      3.0868780000      4.1934610000
O                 -0.6813640000      0.5728130000     -0.1707580000
O                 -0.9238960000      1.5860870000      4.5165120000
O                 -5.8498180000      4.4325510000      0.1302060000
C                 -6.0667530000      5.0836860000     -1.1070360000
H                 -4.6382750000      4.0242670000      2.3675760000
H                 -4.4828450000      3.1262480000     -1.8452180000
H                 -2.4920750000      1.6929530000     -1.4396000000
H                  0.1131670000      0.4221670000      2.3460330000
H                 -1.5846760000      2.1715160000      4.9674300000
H                 -6.9148620000      5.7591990000     -0.9694570000
H                 -6.3215320000      4.3819250000     -1.9122990000
H                 -5.1900740000      5.6726250000     -1.4177340000
$end
$rem
   MAX_SCF_CYCLES=200
   BASIS  =  6-311++G(d,p)
   GUI  =  2
   JOB_TYPE  =  SP
   METHOD  =  B3LYP
   SOLVENT_METHOD = COSMO
$end
$solvent
   dielectric 37.219
   opticaldielectric 1.43
$end





