%chk=193-an.chk
%nproc=8
%mem=30GB
#P UB3LYP/6-311++G(d,p) nosym opt freq

Reduced

-2 1
C                  4.53545800    5.05000700   -1.31833900
 O                  3.86645200    3.87921600   -0.94165900
 C                  4.47808400    2.66229100   -1.16469500
 C                  5.74606500    2.58728200   -1.70410300
 C                  6.37176200    1.32950800   -1.91460900
 C                  5.70078000    0.18125900   -1.57346900
 C                  4.40208600    0.21333700   -1.01782700
 C                  3.79415800   -1.07843000   -0.69095700
 O                  4.39297500   -2.15113200   -0.98220600
 C                  2.49733800   -1.01426600   -0.02570100
 C                  1.88369000   -2.17893700    0.53871000
 O                  2.61998900   -3.35361900    0.56470900
 C                  0.63529300   -2.14729300    1.13309100
 C                  0.15830500   -3.37843900    1.88687400
 C                 -1.32453000   -3.36834500    2.31401300
 O                 -2.17991000   -3.75277700    1.23308400
 C                 -1.68355100   -1.96382200    2.84487800
 C                 -1.47851700   -0.89690300    1.77299800
 O                 -2.60120800   -1.15201600    0.79649000
 C                 -2.82070300   -0.05773800   -0.03065300
 C                 -3.25436600   -0.43529700   -1.43502600
 C                 -3.74988300    0.83401400   -2.17330800
 N                 -3.35148300    0.78607400   -3.58759200
 C                 -3.29939600    2.13039100   -1.44075200
 O                 -1.91535100    2.39305500   -1.59895700
 C                 -3.84312500    2.10296400    0.01337800
 C                 -3.15192400    3.08982500    0.95263800
 O                 -3.83960900    0.77746700    0.57074200
 C                 -0.11558800   -0.92275700    1.14672900
 C                  0.42853500    0.26058400    0.61937700
 O                 -0.28389100    1.38323600    0.57412600
 C                  1.80076800    0.24680700    0.10199100
 C                  2.42355500    1.47082900   -0.26863100
 O                  1.76383500    2.66025200   -0.08267900
 C                  3.73220000    1.47476600   -0.79953300
 C                 -1.55346000   -4.38538600    3.44490200
 C                 -2.70257700   -5.36227100    3.28884100
 O                 -0.85525400   -4.39359700    4.44326100
 H                  3.86114300    5.87294500   -1.07021300
 H                  4.75335000    5.07735800   -2.39694900
 H                  5.48252600    5.18660300   -0.77310000
 H                  6.28163600    3.49038000   -1.96897400
 H                  7.37193800    1.29268100   -2.33866100
 H                  6.13309000   -0.80263800   -1.71453500
 H                  2.05925500   -4.03578500    0.94291800
 H                  0.75474000   -3.51594500    2.79957100
 H                  0.27865900   -4.29363700    1.28568500
 H                 -2.42389600   -2.94043300    0.75356500
 H                 -1.03444000   -1.74600100    3.69649100
 H                 -2.72380900   -1.94266000    3.18687000
 H                 -1.67770100    0.09417300    2.18462900
 H                 -1.90097000    0.51518800   -0.06231800
 H                 -2.39764600   -0.86648200   -1.96022200
 H                 -4.04154400   -1.19531700   -1.40274500
 H                 -4.84704700    0.84237700   -2.14861400
 H                 -2.33638500    0.86426700   -3.62361100
 H                 -3.70187700    1.61480500   -4.06382400
 H                 -3.79895200    2.97165600   -1.94364300
 H                 -1.35021900    2.02150700   -0.88306500
 H                 -4.90713200    2.36807700   -0.06131200
 H                 -2.11062000    2.80521100    1.11548000
 H                 -3.66824000    3.09266800    1.91732900
 H                 -3.17929800    4.10275500    0.53560200
 H                  0.85366500    2.38716900    0.22338800
 H                 -2.55473800   -5.97421500    2.39538500
 H                 -2.76430300   -5.98613800    4.18162900
 H                 -3.63819900   -4.82071300    3.12585000









