$molecule
-1 2
O                 -2.2918910000     -2.6866750000     -0.4341230000
C                 -2.3404570000     -1.3361280000     -0.2029290000
C                 -3.5750480000     -0.7144570000     -0.0832370000
C                 -3.6655790000      0.6691260000      0.1540900000
C                 -2.5166480000      1.4181090000      0.2694610000
C                 -1.2457180000      0.8159020000      0.1526940000
C                 -0.0739700000      1.6855520000      0.2884390000
O                 -0.1940660000      2.9172050000      0.4999750000
C                  1.2386740000      1.0523130000      0.1661920000
C                  2.3979080000      1.8436740000      0.2888910000
C                  3.6500150000      1.2672590000      0.1770260000
C                  3.7903870000     -0.1083090000     -0.0593490000
C                  2.6626480000     -0.9139990000     -0.1848290000
O                  2.8216230000     -2.2319750000     -0.4114560000
C                  1.3529720000     -0.3451900000     -0.0736710000
C                  0.1874780000     -1.2089660000     -0.2087830000
O                  0.3451030000     -2.4564710000     -0.4240470000
C                 -1.1267970000     -0.5936630000     -0.0893540000
H                 -3.2015190000     -3.0008970000     -0.4778750000
H                 -4.4784240000     -1.3142020000     -0.1758130000
H                 -4.6420640000      1.1347930000      0.2443190000
H                 -2.5437770000      2.4848670000      0.4519760000
H                  2.2691730000      2.9030330000      0.4711900000
H                  4.5403880000      1.8824760000      0.2725420000
H                  4.7665800000     -0.5718780000     -0.1489410000
H                  1.8730070000     -2.5915010000     -0.4623880000
$end
$rem
   MAX_SCF_CYCLES=200
   BASIS  =  6-311++G(d,p)
   GUI  =  2
   JOB_TYPE  =  SP
   METHOD  =  B3LYP
   SOLVENT_METHOD = PCM
$end
$pcm
   theory = CPCM
$end
$solvent
   dielectric 37.219
   opticaldielectric 1.43
$end






