%chk=300.chk
%nproc=8
%mem=30GB
#P UB3LYP/6-311++G(d,p) nosym opt freq

Oxidized

0 1
 C                 -0.68025800    3.28795400    0.78813000
 C                 -1.55153700    3.36998200   -0.29367500
 C                 -1.14757800    2.91659300   -1.55078300
 C                  0.59680000    2.75074000    0.60935800
 C                  1.00620000    2.29397100   -0.65414100
 C                  0.12630000    2.38087900   -1.73153400
 C                  1.53179200    2.65717400    1.74524200
 C                  2.88107300    2.07099800    1.50147300
 C                  3.30276000    1.63300300    0.28958200
 C                  2.37786500    1.71497700   -0.86036300
 O                  1.26952400    3.03216800    2.88267500
 O                  2.71679100    1.32290800   -1.96832800
 O                  3.65786300    2.01926700    2.59591900
 C                  4.66572500    1.03701000    0.07644800
 C                  4.67677500   -0.49984700    0.22419100
 C                  6.06858300   -1.10060000    0.00233600
 C                  6.10141200   -2.62643100    0.14532300
 C                  7.49361200   -3.23146400   -0.06839200
 C                  7.52742200   -4.75788300    0.06811700
 C                  8.92088500   -5.36243700   -0.13847300
 C                  8.95336000   -6.88962800   -0.00944900
 C                 10.34878300   -7.49136100   -0.20680200
 C                 10.37183200   -9.02701300   -0.08319100
 C                 11.74656800   -9.62733300   -0.27531000
 C                 12.58666900   -9.88509800    0.80758800
 C                 12.24048400   -9.91751200   -1.55517400
 C                 13.51428700  -10.43469600   -1.74284900
 C                 14.34616300  -10.68313000   -0.64357600
 C                 13.87136000  -10.40851500    0.64090100
 O                 15.58464600  -11.17949300   -0.94083600
 C                 16.52501700  -11.48044900    0.10463400
 C                 16.19910400  -12.82706400    0.79499500
 C                 17.90458100  -11.51177900   -0.54613600
 C                 19.01415900  -11.70973900    0.50998000
 C                 18.57374800  -12.63913100    1.66848300
 C                 17.46879300  -13.59997100    1.21376900
 H                 -0.97055000    3.63340800    1.77279800
 H                 -2.54337900    3.78579700   -0.15931900
 H                 -1.82792900    2.98126100   -2.39237100
 H                  0.45565500    2.02489800   -2.69978300
 H                  3.12975400    2.40571700    3.32023900
 H                  5.36362500    1.47347700    0.79554700
 H                  5.00442800    1.29804800   -0.92923300
 H                  3.97182600   -0.93194600   -0.49389600
 H                  4.31679400   -0.76703500    1.22421700
 H                  6.77358800   -0.65452700    0.71569000
 H                  6.42680100   -0.82219600   -0.99685600
 H                  5.39930900   -3.07152300   -0.57132600
 H                  5.73561300   -2.90448600    1.14224000
 H                  8.19458500   -2.78837000    0.65089300
 H                  7.86144000   -2.94935500   -1.06338300
 H                  6.83010000   -5.20077000   -0.65484200
 H                  7.15447000   -5.04059200    1.06117500
 H                  9.61681300   -4.92334800    0.58804400
 H                  9.29648800   -5.07555500   -1.12916200
 H                  8.26230700   -7.32902400   -0.74072200
 H                  8.57136600   -7.17743900    0.97883600
 H                 11.04185900   -7.06385600    0.52773700
 H                 10.73698100   -7.20559000   -1.19183100
 H                  9.68047200   -9.45288700   -0.81966000
 H                  9.98479900   -9.31086400    0.90192700
 H                 12.23492600   -9.68354500    1.81508600
 H                 11.61285000   -9.73857700   -2.42316100
 H                 13.88838500  -10.65737800   -2.73522900
 H                 14.47789500  -10.60297500    1.51488400
 H                 16.50476700  -10.66067400    0.83324900
 H                 15.60681600  -13.42645300    0.09766500
 H                 15.56890400  -12.65405100    1.67197300
 H                 18.06242400  -10.58596000   -1.10409500
 H                 17.92013900  -12.32558200   -1.27854200
 H                 19.31760400  -10.73905900    0.91467000
 H                 19.89757500  -12.12356300    0.01481900
 H                 18.19719100  -12.03979800    2.50611900
 H                 19.43339900  -13.19402300    2.05454000
 H                 17.22191200  -14.30992000    2.00826200
 H                 17.83689400  -14.19833500    0.37294700


