%chk=145-rad.chk
%nproc=8
%mem=30GB
#P UB3LYP/6-311++G(d,p) nosym  opt freq

Radical

-1 2
C                 -4.9830450000     -1.2267980000     -0.6063460000
C                 -3.5810900000     -1.6765910000     -0.2962280000
O                 -3.2284910000     -2.2510070000      0.6990700000
O                 -2.7561860000     -1.3850660000     -1.3442980000
C                 -1.3723200000     -1.4005810000     -1.1464600000
C                 -0.6922070000     -2.4318510000     -1.7487010000
C                  0.7083290000     -2.4631740000     -1.6977010000
C                  1.3882770000     -1.4622540000     -1.0460980000
O                  2.7821570000     -1.5091970000     -1.1424740000
C                  3.5143790000     -1.8351770000     -0.0372510000
C                  4.9540760000     -1.4497600000     -0.2437140000
O                  3.0645320000     -2.3908340000      0.9290670000
C                  0.7297850000     -0.3745320000     -0.4115930000
C                  1.4908150000      0.6963530000      0.2414790000
O                  2.7426040000      0.6824370000      0.3509090000
C                  0.7210020000      1.8221880000      0.7725380000
C                  1.4102910000      2.9039990000      1.3637370000
C                  0.7269460000      3.9851300000      1.8820610000
C                 -0.6832130000      4.0162870000      1.8314340000
C                 -1.3746490000      2.9655380000      1.2636970000
C                 -0.6931150000      1.8534820000      0.7216690000
C                 -1.4717330000      0.7620370000      0.1345940000
O                 -2.7275120000      0.8036650000      0.1535260000
C                 -0.7137650000     -0.3424200000     -0.4638770000
H                 -5.0011580000     -0.1416320000     -0.4849860000
H                 -5.6818410000     -1.6936740000      0.0864600000
H                 -5.2479990000     -1.4624490000     -1.6391470000
H                 -1.2535760000     -3.2035070000     -2.2611150000
H                  1.2704350000     -3.2600330000     -2.1691010000
H                  5.0121360000     -0.3661800000     -0.1207090000
H                  5.2829600000     -1.6998890000     -1.2544960000
H                  5.5785700000     -1.9457400000      0.4980940000
H                  2.4917420000      2.8487610000      1.3949420000
H                  1.2720490000      4.8096210000      2.3316960000
H                 -1.2222510000      4.8647150000      2.2421660000
H                 -2.4569340000      2.9581300000      1.2171570000


