$molecule
-1 2
C                  1.3692450000      1.1349290000     -2.6834090000
C                 -0.0352210000      1.4745390000     -2.8705030000
C                 -1.0536070000      0.9675260000     -2.1186070000
C                 -0.7698620000      0.0163270000     -1.0378530000
C                  0.6106640000     -0.3312160000     -0.8478160000
O                  2.2615570000      1.6999300000     -3.3629550000
O                 -1.6980010000     -0.4652180000     -0.3278360000
H                 -0.2334920000      2.1964320000     -3.6593120000
C                  1.6445240000      0.1505650000     -1.6367070000
C                  3.0189030000     -0.3081650000     -1.3258290000
C                  4.0271530000     -0.5300600000     -2.4275390000
C                  5.3880730000     -0.4671060000     -2.1085800000
C                  3.6537290000     -0.9034230000     -3.7225160000
C                  6.3575610000     -0.7481330000     -3.0675060000
C                  5.9757830000     -1.1266520000     -4.3549900000
C                  4.6206220000     -1.2111720000     -4.6758970000
O                  3.3584190000     -0.5908570000     -0.1772210000
H                  5.6668770000     -0.1979360000     -1.0967880000
H                  2.6037320000     -0.9517680000     -3.9803860000
H                  7.4099580000     -0.6783570000     -2.8107470000
H                  6.7286290000     -1.3536060000     -5.1033480000
H                  4.3164790000     -1.5060570000     -5.6749200000
C                 -2.4898930000      1.3520370000     -2.3429160000
H                  0.8349530000     -1.0278550000     -0.0473190000
H                 -2.5850940000      2.0606790000     -3.1699980000
H                 -2.9176710000      1.7975790000     -1.4389330000
H                 -3.0983720000      0.4673090000     -2.5570790000
$end
$rem
   MAX_SCF_CYCLES=200
   BASIS  =  6-311++G(d,p)
   GUI  =  2
   JOB_TYPE  =  SP
   METHOD  =  B3LYP
   SOLVENT_METHOD = COSMO
$end
$solvent
   dielectric 37.219
   opticaldielectric 1.43
$end





