$molecule
-2 1
C                 -1.2077860000      2.8447260000      0.0176700000
C                 -2.4868540000      2.3468500000     -0.0377410000
C                 -2.7284960000      0.9561560000     -0.0536310000
C                 -0.0763000000      1.9853100000      0.0654360000
C                 -0.3102820000      0.5616420000      0.0609590000
C                 -1.6378880000      0.0997340000     -0.0017670000
C                  1.2461810000      2.5803190000      0.1150800000
C                  2.2977130000      1.6065370000      0.1640480000
C                  2.0844670000      0.2184760000      0.1651690000
C                  0.7995040000     -0.3907380000      0.1153040000
O                  1.4301140000      3.8540690000      0.1247380000
O                  0.6171790000     -1.6629530000      0.1102360000
H                 -1.0052680000      3.9149960000      0.0270020000
H                 -1.7758160000     -0.9776250000     -0.0082550000
O                  3.5804730000      2.1424010000      0.2558440000
O                 -3.6088750000      3.1964320000     -0.0848380000
H                 -3.7486280000      0.5861680000     -0.1004100000
H                  2.9272630000     -0.4639350000      0.1947710000
C                  4.6681160000      1.3206640000     -0.0903150000
H                 -3.2605590000      4.0934830000     -0.0655140000
H                  5.5602630000      1.9550360000     -0.1063490000
H                  4.5413180000      0.8616970000     -1.0850510000
H                  4.8363710000      0.5137040000      0.6359830000
$end

$rem
   BASIS  =  6-311++G(d,p)
   GUI  =  2
   JOB_TYPE  =  SP
   METHOD  =  B3LYP
   SCF_CONVERGENCE  = 8
   SOLVENT_METHOD = sm12
$end

$smx
   solvent dimethylformamide
   charges CM5
$end





