$molecule
-2 1
C                 -1.7894770000      2.7982670000     -0.7363230000
C                 -2.9009600000      2.0042240000     -0.5225050000
C                 -2.7325970000      0.6324350000     -0.1747330000
C                 -0.4640430000      2.3129230000     -0.6147360000
C                 -0.3026750000      0.9276690000     -0.1858950000
C                 -1.4601330000      0.1204860000     -0.0179900000
C                  0.6542900000      3.2037620000     -0.8905600000
C                  2.0312630000      2.6358990000     -0.7068030000
C                  2.1038900000      1.2704800000     -0.2576470000
C                  1.0063570000      0.4600130000      0.0007470000
O                  0.4809500000      4.4025170000     -1.2668260000
O                  3.0770330000      3.3242810000     -0.9149960000
H                 -1.8945500000      3.8422480000     -1.0177260000
H                 -3.9022210000      2.4164650000     -0.6363130000
H                 -3.6019980000     -0.0099800000     -0.0404550000
H                 -1.3203490000     -0.9231660000      0.2497970000
H                  3.1069780000      0.8878200000     -0.0640540000
O                  1.1898400000     -0.8734060000      0.4265620000
H                  2.0003500000     -1.1945670000      0.0058920000
$end
$rem
   MAX_SCF_CYCLES=200
   BASIS  =  6-311++G(d,p)
   GUI  =  2
   JOB_TYPE  =  SP
   METHOD  =  B3LYP
   SOLVENT_METHOD = PCM
$end
$pcm
   theory = CPCM
$end
$solvent
   dielectric 37.219
   opticaldielectric 1.43
$end






