%chk=152-an-PCM.chk
%nproc=8
%mem=30GB
#P UB3LYP/6-311++G(d,p) SCRF=(PCM,Solvent=n,n-DiMethylFormamide)

Reduced 

-2 1
N                 -2.9383260000     -1.8691260000     -0.2485970000
C                 -2.5475880000     -0.5257520000     -0.1053160000
C                 -3.5047510000      0.4749300000     -0.0038190000
C                 -3.1212970000      1.8225890000      0.2152850000
C                 -1.7907440000      2.1482970000      0.3398470000
C                 -0.7702140000      1.1650880000      0.2264390000
C                  0.6081750000      1.6260360000      0.3465550000
O                  0.8680000000      2.8574630000      0.5641410000
C                  1.6181410000      0.5954150000      0.1922920000
C                  3.0244550000      0.8116870000      0.2914510000
Cl                 3.7199980000      2.4245740000      0.6943630000
C                  3.9818860000     -0.1622920000      0.1101680000
C                  3.5763220000     -1.4904630000     -0.1972710000
C                  2.2377860000     -1.7771870000     -0.2968170000
C                  1.2312560000     -0.7926440000     -0.1073590000
C                 -0.1328810000     -1.2220850000     -0.2287260000
O                 -0.4169430000     -2.4676810000     -0.5274730000
C                 -1.1384920000     -0.2110890000     -0.0221520000
H                 -3.7401230000     -1.9865930000     -0.8540540000
H                 -2.0992940000     -2.4336230000     -0.4962930000
H                 -4.5581610000      0.2008310000     -0.0528580000
H                 -3.8877340000      2.5923480000      0.2968140000
H                 -1.4610590000      3.1651610000      0.5198380000
H                  5.0305520000      0.0937920000      0.2095710000
H                  4.3285010000     -2.2631270000     -0.3431600000
H                  1.8825350000     -2.7765500000     -0.5228700000





