$molecule
0 1
C                 -3.2616290000      3.6623860000      0.0827750000
C                 -4.5063210000      3.0250390000      0.0878230000
C                 -4.5717330000      1.6241390000      0.0641930000
C                 -2.0916170000      2.9137040000      0.0544360000
C                 -2.1481150000      1.5046890000      0.0305400000
C                 -3.3969530000      0.8819010000      0.0359050000
C                 -0.7817220000      3.6341170000      0.0499280000
C                  0.4570130000      2.7977970000      0.0194820000
C                  0.3846150000      1.3895040000     -0.0041560000
C                 -0.9171240000      0.6732790000      0.0000700000
C                  1.6905290000      3.4370710000      0.0147960000
C                  2.8718480000      2.6892780000     -0.0134550000
C                  2.8090740000      1.2882570000     -0.0371240000
C                  1.5713970000      0.6558470000     -0.0322410000
O                 -0.7260940000      4.8517410000      0.0706470000
O                 -0.9729810000     -0.5495080000     -0.0204350000
H                 -3.4314460000     -0.2005770000      0.0174660000
H                  1.5068550000     -0.4252580000     -0.0502980000
H                 -3.2090260000      4.7434240000      0.1009670000
H                  1.7369000000      4.5183960000      0.0330690000
O                  4.0243550000      3.4050050000     -0.0158350000
C                  5.2684050000      2.7115550000     -0.0429010000
O                 -5.5886780000      3.8425090000      0.1162810000
H                  3.7106200000      0.6910600000     -0.0591830000
H                  6.0352620000      3.4836680000     -0.0388120000
H                  5.3665330000      2.1064020000     -0.9498660000
H                  5.3881640000      2.0754020000      0.8399270000
C                 -6.8909120000      3.2650770000      0.1213810000
H                 -5.5240460000      1.1113210000      0.0676800000
H                 -7.5840290000      4.1037120000      0.1442700000
H                 -7.0456600000      2.6411770000      1.0075140000
H                 -7.0665990000      2.6726750000     -0.7822840000
$end
$rem
   MAX_SCF_CYCLES=200
   BASIS  =  6-311++G(d,p)
   GUI  =  2
   JOB_TYPE  =  SP
   METHOD  =  B3LYP
   SOLVENT_METHOD = PCM
$end
$pcm
   theory = CPCM
$end
$solvent
   dielectric 37.219
   opticaldielectric 1.43
$end





