%chk=068-an-PCM.chk
%nproc=8
%mem=30GB
#P UB3LYP/6-311++G(d,p) SCRF=(PCM,Solvent=n,n-DiMethylFormamide)

Reduced 

-2 1
C                 -0.2921660000      1.7929220000     -1.2443950000
C                 -1.2554330000      1.6739110000     -0.1496820000
C                 -1.0291850000      0.9493060000      0.9710360000
C                  0.1686920000      0.1488330000      1.1956210000
C                  1.1509580000      0.1671480000      0.1290150000
C                  0.9368180000      1.1149530000     -0.9882010000
O                 -0.5949650000      2.4746110000     -2.2679770000
O                  0.2074050000     -0.5411700000      2.2710060000
S                  2.2531710000      1.7213190000     -2.0426420000
C                  3.8264390000      1.4784680000     -1.1237940000
C                  4.0047250000      2.0872080000      0.1156280000
C                  4.8859830000      0.8408220000     -1.7594650000
C                  6.1434550000      0.8248680000     -1.1569710000
C                  5.2600170000      2.0524470000      0.7253940000
C                  6.3335430000      1.4283370000      0.0887270000
O                  2.2066920000      3.2073980000     -2.0994740000
O                  2.4342870000      1.0492570000     -3.3511530000
H                 -2.1799750000      2.2334850000     -0.2855410000
H                 -1.7664790000      0.8970700000      1.7702110000
H                  3.1668360000      2.5812660000      0.5916550000
H                  4.6955020000      0.3583150000     -2.7099760000
H                  6.9725360000      0.3255840000     -1.6510280000
H                  5.3974420000      2.5122720000      1.6997730000
H                  7.3100260000      1.4031360000      0.5646840000
C                  2.1618350000     -0.8713420000     -0.0467520000
O                  2.6919930000     -1.0216510000     -1.1638010000
C                  2.6745350000     -1.8641250000      1.0649480000
C                  3.0714320000     -1.1319220000      2.3627260000
C                  1.6074040000     -2.9475180000      1.3362690000
C                  3.9359250000     -2.5754890000      0.5281210000
H                  2.2076050000     -0.6233330000      2.7904070000
H                  3.8696770000     -0.4097750000      2.1612350000
H                  3.4531590000     -1.8590440000      3.0953940000
H                  0.7013270000     -2.4966510000      1.7421610000
H                  1.9943710000     -3.6793300000      2.0609860000
H                  1.3744790000     -3.4836380000      0.4087850000
H                  4.7312070000     -1.8614680000      0.3002670000
H                  3.7238260000     -3.1291430000     -0.3883450000
H                  4.3021110000     -3.2753270000      1.2919370000





