%chk=255-rad.chk
%nproc=8
%mem=30GB
#P UB3LYP/6-311++G(d,p) nosym  opt freq

Radical

-1 2
C                 -1.6171030000      2.7800410000      0.0197650000
C                 -2.8763440000      2.2151590000      0.0159950000
C                 -3.0006150000      0.8198260000      0.0068230000
C                 -0.4667540000      1.9715640000      0.0140930000
C                 -0.5822450000      0.5457230000      0.0040670000
C                 -1.8931300000     -0.0237490000      0.0007050000
C                  0.8371030000      2.6603870000      0.0191530000
C                  2.0215020000      1.8334940000      0.0133590000
C                  1.9254450000      0.4509430000      0.0036050000
C                  0.6604810000     -0.2583420000     -0.0016450000
O                  0.8960030000      3.9228230000      0.0280400000
O                  0.6694960000     -1.5240330000     -0.0108390000
C                  3.3495350000      2.5556530000      0.0184870000
C                  3.1449680000     -0.4386980000     -0.0026350000
C                 -2.1859020000     -1.5155210000     -0.0098970000
H                 -1.4679980000      3.8530030000      0.0272950000
H                 -3.7639810000      2.8416210000      0.0205930000
H                 -3.9915820000      0.3712370000      0.0043080000
H                  3.1649260000      3.6300550000      0.0261090000
H                  3.9521290000      2.3124530000     -0.8650690000
H                  3.9521270000      2.2999400000      0.8985050000
H                  4.0744660000      0.1314480000      0.0014960000
H                  3.1377000000     -1.0961750000     -0.8788330000
H                  3.1375580000     -1.1085780000      0.8641160000
H                 -1.2722470000     -2.1007320000     -0.0030730000
H                 -2.7724520000     -1.7759220000     -0.8998100000
H                 -2.7933680000     -1.7840200000      0.8629660000





