%chk=314.chk
%nproc=8
%mem=30GB
#P UB3LYP/6-311++G(d,p) nosym opt freq

Oxidized

0 1
C         -4.68087       -0.92261       -2.78719
C         -4.06305       -1.45198       -3.92113
C         -2.71580       -1.19287       -4.16310
C         -3.94975       -0.12967       -1.89034
C         -2.60651        0.12799       -2.12989
C         -1.98703       -0.40541       -3.27039
C         -4.61766        0.42600       -0.70313
C         -3.83602        1.29202        0.22659
C         -2.52951        1.52244       -0.00092
C         -1.82392        0.95687       -1.19697
O         -5.80010        0.17729       -0.49362
O         -0.63467        1.15170       -1.42925
H         -5.73473       -1.12945       -2.60632
H         -4.63389       -2.06534       -4.61496
H         -2.23140       -1.60303       -5.04663
H         -0.93439       -0.20825       -3.46868
C         -4.65796        1.83254        1.36726
S         -1.54176        2.52019        1.03720
C         -0.99726        1.26495        2.18460
C         -1.56616        1.19645        3.46115
C         -1.15350        0.22169        4.38526
C         -0.14284       -0.69620        4.01906
C          0.43225       -0.60960        2.74230
C          0.01273        0.36680        1.83539
C         -1.72183        0.14122        5.66704
C         -1.30111       -0.83249        6.57422
C         -0.30773       -1.73748        6.21235
C          0.26863       -1.67017        4.94292
H         -5.55355        2.33648        0.98673
H         -4.13258        2.56524        1.98376
H         -4.97365        1.01514        2.02460
H         -2.33606        1.91063        3.74489
H          1.21945       -1.29874        2.44416
H          0.48908        0.42108        0.85830
H         -2.49833        0.84010        5.97031
H         -1.74870       -0.88251        7.56349
H          0.02139       -2.49543        6.91849
H          1.04580       -2.38443        4.68008







