%chk=160-rad.chk
%nproc=8
%mem=30GB
#P UB3LYP/6-311++G(d,p) nosym  opt freq SCRF=(PCM,Solvent=n,n-DiMethylFormamide)

Radical

-1 2
C                 -1.7699670000      1.8911020000     -5.1439780000
C                 -1.6794230000      0.5664390000     -5.5211640000
C                 -1.3015280000     -0.4142140000     -4.5778830000
C                 -1.4895250000      2.2966210000     -3.8193210000
C                 -1.1103870000      1.3079140000     -2.8739760000
C                 -1.0236280000     -0.0420890000     -3.2783660000
C                 -1.6058620000      3.7238530000     -3.4873120000
C                 -0.8101180000      1.6653510000     -1.4925240000
C                 -1.3030910000      4.0994920000     -2.0986020000
C                 -0.9234170000      3.0883560000     -1.1541780000
C                 -1.3614760000      5.4338750000     -1.6074810000
C                 -1.0840590000      5.7892100000     -0.2836690000
C                 -0.7099540000      4.7371190000      0.5904070000
C                 -0.6290030000      3.4374190000      0.1753150000
O                 -1.9500090000      4.5467560000     -4.3678540000
O                 -0.4729780000      0.8105520000     -0.6389510000
H                 -2.0580380000      2.6620470000     -5.8485260000
H                 -1.8991170000      0.2769100000     -6.5446050000
H                 -1.2308710000     -1.4561000000     -4.8755600000
H                 -0.7314120000     -0.7689170000     -2.5293820000
Br                -0.2700630000      5.1606140000      2.4328830000
H                 -0.3390680000      2.6377500000      0.8442190000
N                 -1.2148260000      7.0933360000      0.1820610000
Cl                -1.7866940000      6.8001180000     -2.6568440000
H                 -1.1924730000      7.7977170000     -0.5408210000
H                 -0.6588320000      7.3101610000      0.9961000000


