$molecule
-2 1
O                 -5.6016130000      1.1624810000     -1.3802980000
S                 -5.4059070000      0.6310390000     -0.0069720000
O                 -5.3483190000      1.6711030000      1.0479670000
O                 -6.2736030000     -0.5318370000      0.3184300000
C                 -3.7144660000     -0.0784650000     -0.0491230000
C                 -3.5536910000     -1.4474210000     -0.2762210000
C                 -2.2802080000     -1.9962330000     -0.3559380000
C                 -1.1466070000     -1.1898360000     -0.2105320000
C                  0.2010270000     -1.8115510000     -0.2999750000
O                  0.3348130000     -3.0152550000     -0.5060510000
C                  1.3807180000     -0.9230370000     -0.1282450000
C                  2.6645070000     -1.4742500000     -0.1950360000
C                  3.7877060000     -0.6724190000     -0.0374140000
C                  3.6444600000      0.6983690000      0.1902590000
C                  2.3717360000      1.2604850000      0.2627630000
C                  1.2351420000      0.4603430000      0.1036800000
C                 -0.1208530000      1.0865930000      0.1891450000
O                 -0.2537950000      2.2839360000      0.3894500000
C                 -1.3080150000      0.1918580000      0.0208880000
C                 -2.5943480000      0.7362400000      0.1011780000
S                  5.1443610000      1.7448390000      0.3364650000
O                  5.3086360000      2.3207710000     -1.0229630000
O                  4.8057700000      2.7381130000      1.3837230000
O                  6.2143810000      0.7852950000      0.7178270000
H                 -4.4408170000     -2.0620100000     -0.3714100000
H                 -2.1365040000     -3.0563710000     -0.5280470000
H                  2.7564070000     -2.5398450000     -0.3688750000
H                  4.7878060000     -1.0876350000     -0.0714370000
H                  2.2526030000      2.3193710000      0.4540830000
H                 -2.7113260000      1.7953280000      0.2926770000
$end

$rem
   BASIS  =  6-311++G(d,p)
   GUI  =  2
   JOB_TYPE  =  SP
   METHOD  =  B3LYP
   SCF_CONVERGENCE  = 8
   SOLVENT_METHOD = sm12
$end

$smx
   solvent dimethylformamide
   charges CM5
$end





