$molecule
-1 2
C                  1.0772950000      1.7141060000     -0.6019280000
C                 -0.1569850000      1.2308600000      0.0293630000
C                 -0.4529760000     -0.1071190000      0.1265380000
C                  0.4528020000     -1.1337060000     -0.3977880000
C                  1.6585730000     -0.6636580000     -1.0303690000
C                  1.9412970000      0.6776180000     -1.1329860000
O                  1.3622460000      2.9364980000     -0.6545450000
O                  0.1977990000     -2.3667590000     -0.3050740000
S                  3.4441350000      1.1440650000     -1.9985820000
C                  4.4764050000      2.0142630000     -0.7818630000
C                  4.3053630000      3.3812110000     -0.5744170000
C                  5.4541250000      1.2926820000     -0.1004730000
C                  6.2743790000      1.9531640000      0.8128120000
C                  5.1336970000      4.0314650000      0.3386630000
C                  6.1148850000      3.3216560000      1.0317080000
O                  3.1595430000      2.0900200000     -3.0878140000
O                  4.1743940000     -0.1005710000     -2.3184750000
H                  3.5203960000      3.9013340000     -1.1051840000
H                  5.5688050000      0.2347600000     -0.3012800000
H                  5.0081060000      5.0949780000      0.5116600000
H                  2.3391190000     -1.4036290000     -1.4325900000
H                  7.0395640000      1.4003230000      1.3474070000
C                 -1.7219660000     -0.5858670000      0.7848740000
C                 -1.0870930000      2.2843180000      0.5778290000
H                  6.7540800000      3.8344020000      1.7432900000
H                 -1.7819050000     -0.2580860000      1.8297330000
H                 -1.7565360000     -1.6750050000      0.7562830000
H                 -2.6108670000     -0.1907590000      0.2785800000
H                 -0.6735020000      3.2735460000      0.3827680000
H                 -1.2295700000      2.1717210000      1.6595710000
H                 -2.0808570000      2.2198590000      0.1190490000
$end
$rem
   MAX_SCF_CYCLES=200
   BASIS  =  6-311++G(d,p)
   GUI  =  2
   JOB_TYPE  =  SP
   METHOD  =  B3LYP
   SOLVENT_METHOD = COSMO
$end
$solvent
   dielectric 37.219
   opticaldielectric 1.43
$end





