%chk=096.chk
%nproc=8
%mem=30GB
#P UB3LYP/6-311++G(d,p) nosym opt freq

Oxidized

0 1
C                  1.8874550000      3.9282120000      5.5222090000
C                  2.8070090000      3.4602070000      4.4537720000
C                  2.4873110000      2.4500550000      3.6350300000
C                  1.1951290000      1.7366200000      3.7697320000
C                  0.2910980000      2.1630160000      4.8679470000
C                  0.6174600000      3.1543140000      5.7125720000
O                  2.1390800000      4.9227290000      6.1740530000
O                  0.8817270000      0.8320150000      3.0143330000
H                  3.7355180000      4.0135010000      4.3662880000
H                  3.1393230000      2.1128540000      2.8369290000
H                 -0.6390000000      1.6129280000      4.9562230000
C                 -0.2354470000      3.4897270000      6.9013540000
O                  0.1819060000      3.5255170000      8.0291340000
O                 -1.5148510000      3.6986690000      6.5478940000
C                 -2.4249470000      3.9907410000      7.6312910000
H                 -3.3915050000      4.1481120000      7.1593080000
H                 -2.1014210000      4.8866110000      8.1616210000
H                 -2.4648230000      3.1520210000      8.3271480000


