%chk=054-an.chk
%nproc=8
%mem=30GB
#P UB3LYP/6-311++G(d,p) nosym opt freq SCF=YQC

Reduced

-2 1
C         -0.56000        1.94244       -0.30837
C         -1.86699        1.19636       -0.23962
C         -1.81217       -0.18192       -0.23779
C         -0.45894       -0.83995       -0.29951
C          0.84196       -0.08567       -0.21559
C          0.79626        1.29326       -0.21204
O         -0.60224        3.15298       -0.48926
O         -0.41429       -2.05482       -0.39629
C          1.96364        2.34063       -0.16079
C          1.88210        3.15536        1.14950
C          3.43303        1.93952       -0.35056
C          2.12314       -0.94723       -0.12600
C          2.11934       -1.86670        1.10943
C          2.37637       -1.73683       -1.42001
C         -3.10868        2.15532       -0.21768
C         -3.12015        2.97401        1.09208
C         -4.53938        1.64850       -0.44745
C         -3.02865       -1.13322       -0.16006
C         -3.20593       -1.95346       -1.44763
C         -2.97482       -2.03618        1.08625
H          1.78394        3.02075       -1.02330
H          2.62922        3.97814        1.14541
H          2.08516        2.49454        2.01923
H          0.89262        3.62565        1.30732
H          3.84263        1.42277        0.54293
H          4.05379        2.85591       -0.45590
H          3.56585        1.35636       -1.28663
H          3.01039       -0.36032        0.00892
H          1.99722       -1.25847        2.03098
H          3.08624       -2.40986        1.18014
H          1.31969       -2.63096        1.08437
H          1.57764       -2.46916       -1.64393
H          3.33351       -2.29610       -1.34071
H          2.46131       -1.03233       -2.27504
H         -2.95696        2.84647       -1.07685
H         -3.92466        3.74037        1.06669
H         -2.17128        3.51435        1.27356
H         -3.29733        2.30034        1.95756
H         -5.22065        2.51770       -0.57633
H         -4.93836        1.10831        0.43670
H         -4.60215        1.05277       -1.38298
H         -3.95764       -0.61046       -0.04322
H         -4.12199       -2.57851       -1.37385
H         -2.35494       -2.63065       -1.65119
H         -3.32820       -1.26705       -2.31261
H         -3.89940       -2.64919        1.15085
H         -2.91190       -1.40990        2.00181
H         -2.11901       -2.73758        1.08146







