$molecule
-2 1
Br                -3.1142420000     -1.1457180000      0.0155150000
C                 -1.2930050000     -0.4631990000      0.0064810000
C                 -1.0286880000      0.9102290000      0.0084330000
Br                -2.4664240000      2.2197790000      0.0203690000
C                  0.2879130000      1.4955420000      0.0021350000
O                  0.5282400000      2.7442720000      0.0039160000
C                  1.2930610000      0.4632600000     -0.0064820000
C                  1.0286550000     -0.9101940000     -0.0084340000
Br                 2.4664680000     -2.2197090000     -0.0203690000
C                 -0.2879100000     -1.4955110000     -0.0021370000
O                 -0.5283060000     -2.7442790000     -0.0039150000
Br                 3.1142390000      1.1455290000     -0.0155120000
$end
$rem
   MAX_SCF_CYCLES=200
   BASIS  =  6-311++G(d,p)
   GUI  =  2
   JOB_TYPE  =  SP
   METHOD  =  B3LYP
   SOLVENT_METHOD = COSMO
$end
$solvent
   dielectric 37.219
   opticaldielectric 1.43
$end





