$molecule
-2 1
C                 -0.5517180000      1.2122290000     -0.3737850000
C                 -1.4320750000      0.1506710000     -0.8330040000
C                 -1.2149010000     -1.1982220000     -0.6576990000
C                 -0.0339470000     -1.7035390000      0.0324930000
C                  0.8323790000     -0.6954400000      0.4857340000
C                  0.6427460000      0.7284230000      0.3233020000
O                 -0.8596910000      2.4259140000     -0.5955140000
O                  0.1477480000     -2.9865750000      0.1850350000
C                  1.6345560000      1.6400410000      0.8516380000
C                  2.8657810000      1.0242770000      1.5729870000
O                  1.6252830000      2.8867560000      0.7997670000
H                 -2.3274350000      0.4941710000     -1.3547160000
H                  3.4416370000      0.3658750000      0.9117310000
H                  2.5735850000      0.4256650000      2.4440110000
H                  3.4966180000      1.8554620000      1.8980320000
C                 -2.1952550000     -2.2198050000     -1.1753080000
H                  1.7165690000     -1.0561320000      1.0017700000
H                 -3.0463340000     -1.7396900000     -1.6748380000
H                 -2.5645680000     -2.8538540000     -0.3582500000
H                 -1.7056790000     -2.9095090000     -1.8758260000
$end
$rem
   MAX_SCF_CYCLES=200
   BASIS  =  6-311++G(d,p)
   GUI  =  2
   JOB_TYPE  =  SP
   METHOD  =  B3LYP
   SOLVENT_METHOD = PCM
$end
$pcm
   theory = CPCM
$end
$solvent
   dielectric 37.219
   opticaldielectric 1.43
$end





