$molecule
-2 1
N                 -2.0478470000      2.9224050000     -0.2256380000
C                 -2.0760680000      1.5149820000     -0.0235010000
C                 -3.2904090000      0.8666780000      0.0700240000
C                 -3.3620600000     -0.5443900000      0.1845350000
C                 -2.2198750000     -1.3181260000      0.2062760000
N                 -2.3349100000     -2.7352380000      0.2333800000
C                 -0.9131020000     -0.6958840000      0.1623130000
C                  0.2793490000     -1.5044140000      0.2943170000
O                  0.2656950000     -2.8039430000      0.4404740000
C                  1.5302090000     -0.7985140000      0.2769970000
C                  2.7459710000     -1.5249880000      0.3927830000
C                  3.9769680000     -0.9044130000      0.3933610000
C                  4.0490450000      0.5153780000      0.2787770000
C                  2.8868000000      1.2485530000      0.1688560000
C                  1.6031780000      0.6389630000      0.1608870000
C                  0.4298790000      1.4606940000      0.0546450000
O                  0.5481720000      2.7615420000     -0.0094120000
C                 -0.8389050000      0.7655550000      0.0440100000
H                 -1.0655060000      3.2372790000     -0.1092330000
H                 -2.6900030000      3.3970190000      0.3976350000
H                 -4.2060130000      1.4517700000     -0.0086840000
H                 -4.3324950000     -1.0393940000      0.1937370000
H                 -3.0168440000     -3.0366640000      0.9190610000
H                 -1.3883190000     -3.1246240000      0.4065920000
H                  2.6552200000     -2.6029180000      0.4810090000
H                  4.8894040000     -1.4928130000      0.4798980000
H                  5.0167340000      1.0152040000      0.2774660000
H                  2.9057310000      2.3303020000      0.0827600000
$end
$rem
   MAX_SCF_CYCLES=200
   BASIS  =  6-311++G(d,p)
   GUI  =  2
   JOB_TYPE  =  SP
   METHOD  =  B3LYP
   SOLVENT_METHOD = COSMO
$end
$solvent
   dielectric 37.219
   opticaldielectric 1.43
$end





