$molecule
-1 2
C                 -3.2307640000      0.0618690000      1.0038740000
C                 -1.8858730000     -0.0063220000      0.3298250000
C                 -1.7712110000     -0.2279180000     -1.0289040000
C                 -0.5235900000     -0.3048890000     -1.7369480000
O                 -0.4563650000     -0.5088930000     -2.9799420000
C                  0.6853970000     -0.1288870000     -0.9114650000
C                  1.9592600000     -0.1866790000     -1.5087800000
C                  3.1091890000     -0.0247270000     -0.7560820000
C                  3.0125420000      0.2020910000      0.6312730000
C                  1.7698180000      0.2622610000      1.2365440000
C                  0.5865320000      0.0999190000      0.4879430000
C                 -0.7188090000      0.1701850000      1.1659750000
O                 -0.8105230000      0.3731730000      2.4090660000
H                 -4.0400410000     -0.0838530000      0.2827040000
H                 -3.3148930000     -0.6970490000      1.7895300000
H                 -3.3706530000      1.0266100000      1.5038530000
H                 -2.6654740000     -0.3573190000     -1.6344270000
H                  2.0007000000     -0.3625580000     -2.5780170000
H                  4.0845250000     -0.0720960000     -1.2321370000
H                  3.9139200000      0.3295230000      1.2242430000
H                  1.6663110000      0.4355570000      2.3018670000
$end

$rem
   BASIS  =  6-311++G(d,p)
   GUI  =  2
   JOB_TYPE  =  SP
   METHOD  =  B3LYP
   SCF_CONVERGENCE  = 8
   SOLVENT_METHOD = sm12
$end

$smx
   solvent dimethylformamide
   charges CM5
$end





