$molecule
-2 2
C                  5.0464580000     -2.9036790000     -0.3703330000
C                  5.8166600000     -2.0486710000     -1.1338110000
C                  5.2720600000     -0.8206280000     -1.5822260000
C                  3.7160220000     -2.5809570000     -0.0220130000
C                  3.1672510000     -1.3430800000     -0.4740920000
C                  3.9745430000     -0.4832970000     -1.2546990000
C                  2.9355280000     -3.5080540000      0.7842350000
C                  1.5751300000     -3.1330530000      1.1162420000
C                  1.0301670000     -1.8840040000      0.6567000000
C                  1.8077250000     -0.9634150000     -0.1449700000
C                  0.7723620000     -4.0136600000      1.9061810000
C                 -0.5483840000     -3.6517510000      2.2294850000
C                 -0.3056200000     -1.5592070000      1.0059390000
C                 -1.0620540000     -2.4376420000      1.7765120000
O                  3.4530490000     -4.6103780000      1.1752490000
O                  1.3213800000      0.1521210000     -0.5559060000
O                  1.2781340000     -5.1789640000      2.3356700000
H                  5.4366540000     -3.8499970000     -0.0132980000
H                  6.8381610000     -2.3162050000     -1.3906150000
H                  5.8762600000     -0.1460000000     -2.1832030000
H                  2.2132250000     -5.2098890000      1.9852170000
O                 -0.8682080000     -0.3897490000      0.5963990000
H                 -2.0807760000     -2.1810950000      2.0381680000
H                 -0.1471120000      0.0644630000      0.0687600000
H                  3.5319380000      0.4499650000     -1.5840990000
S                 -1.6592460000     -4.7208520000      3.2419820000
O                 -1.8016670000     -5.9875570000      2.4789460000
O                 -0.9859580000     -4.8658950000      4.5583070000
O                 -2.9272620000     -3.9364720000      3.3162450000
$end
$rem
   MAX_SCF_CYCLES=200
   BASIS  =  6-311++G(d,p)
   GUI  =  2
   JOB_TYPE  =  SP
   METHOD  =  B3LYP
   SOLVENT_METHOD = COSMO
$end
$solvent
   dielectric 37.219
   opticaldielectric 1.43
$end





