%chk=214-an.chk
%nproc=8
%mem=30GB
#P UB3LYP/6-311++G(d,p) nosym opt freq SCF=YQC

Reduced

-2 1
C          5.04915       -2.23844        0.73204
C          5.88688       -1.41838       -0.02587
C          5.34655       -0.57487       -0.99606
C          3.66477       -2.21548        0.51839
C          3.12479       -1.37258       -0.45163
C          3.96743       -0.54992       -1.21048
C          2.78638       -3.08575        1.32563
C          1.33031       -3.06536        1.07922
C          0.79119       -2.22220        0.11037
C          1.66730       -1.33940       -0.68560
C          0.48885       -3.89975        1.82865
C         -0.59081       -2.20849       -0.11156
C         -1.42854       -3.04042        0.63464
O          3.25929       -3.81401        2.19054
O          1.19068       -0.58875       -1.52907
H          5.47864       -2.89419        1.48766
H          6.96168       -1.43813        0.14116
H          5.99925        0.06430       -1.58675
H         -2.50127       -3.01828        0.44860
H          3.55310        0.11130       -1.96978
H          0.91649       -4.55732        2.58531
H         -1.02030       -1.55177       -0.86648
C         -0.89585       -3.89664        1.60710
C         -1.80213       -4.78255        2.42369
C         -2.29557       -4.09096        3.69069
O         -3.16039       -4.97060        4.39960
H         -1.28224       -5.71326        2.68569
H         -2.65826       -5.10406        1.81634
H         -2.85219       -3.17883        3.45027
H         -1.45815       -3.82486        4.34456
H         -3.43926       -4.50591        5.20755







