%chk=250-rad-PCM.chk
%nproc=8
%mem=30GB
#P UB3LYP/6-311++G(d,p) SCRF=(PCM,Solvent=n,n-DiMethylFormamide)

Radical PCM in DMF 

-1 2
C                  5.7605270000     -5.7373100000      0.4403700000
C                  5.8406390000     -5.9356710000     -0.9266300000
C                  5.1043590000     -5.1111980000     -1.8005910000
C                  4.9501990000     -4.7185340000      0.9802950000
C                  4.2095100000     -3.8893080000      0.1005400000
C                  4.3032400000     -4.1060280000     -1.2886870000
C                  4.8854840000     -4.5317630000      2.4377660000
C                  4.0296900000     -3.4654360000      2.9213050000
C                  3.3105300000     -2.6472620000      2.0560170000
C                  3.3508840000     -2.8151990000      0.6184050000
O                  5.5498320000     -5.2738730000      3.2147000000
O                  2.6836560000     -2.0781590000     -0.1617920000
H                  6.4698950000     -6.7255830000     -1.3268790000
C                  2.4174260000     -1.5362490000      2.5610150000
H                  5.1664820000     -5.2658140000     -2.8740810000
C                  3.9710830000     -3.2831490000      4.4207720000
C                  0.9384980000     -1.9532780000      2.6827880000
C                  0.0251480000     -0.8124720000      3.1447390000
C                 -1.4505110000     -1.2121810000      3.2593770000
H                  6.3154650000     -6.3554850000      1.1368290000
H                  3.7245010000     -3.4564910000     -1.9355970000
H                  2.4739050000     -0.7068760000      1.8490040000
H                  2.7690150000     -1.1689880000      3.5308280000
H                  4.5088160000     -4.1023990000      4.8986760000
H                  2.9414950000     -3.2672290000      4.7947430000
H                  4.4407720000     -2.3417510000      4.7348250000
H                  0.8523070000     -2.7960680000      3.3805170000
H                  0.6066160000     -2.3166650000      1.7050830000
H                  0.1181330000      0.0261870000      2.4422200000
H                  0.3729520000     -0.4357590000      4.1169680000
H                 -1.5440910000     -2.0529530000      3.9596780000
H                 -1.7966290000     -1.5878210000      2.2878140000
C                 -2.3681250000     -0.0718720000      3.7159180000
C                 -3.8435310000     -0.4727930000      3.8291010000
C                 -4.7612180000      0.6676070000      4.2847370000
C                 -6.2363640000      0.2657050000      4.3972610000
C                 -7.1540040000      1.4056330000      4.8533110000
H                 -2.2751960000      0.7682390000      3.0150210000
H                 -2.0210560000      0.3048910000      4.6874310000
H                 -3.9366910000     -1.3131260000      4.5296870000
H                 -4.1903370000     -0.8493620000      2.8578930000
H                 -4.6683240000      1.5077550000      3.5840000000
H                 -4.4144980000      1.0443170000      5.2561180000
H                 -6.3292920000     -0.5748230000      5.0975300000
H                 -6.5831490000     -0.1104060000      3.4258480000
H                 -7.0620220000      2.2467070000      4.1533640000
H                 -6.8083480000      1.7821750000      5.8252200000
C                 -8.6292440000      1.0042850000      4.9656010000
C                 -9.5378100000      2.1499310000      5.4220150000
H                 -8.7219190000      0.1644670000      5.6652280000
H                 -8.9753730000      0.6290120000      3.9946930000
H                 -9.2381440000      2.5236770000      6.4065250000
H                -10.5820870000      1.8311680000      5.4917330000
H                 -9.4934140000      2.9917210000      4.7233550000





