%chk=202.chk
%nproc=8
%mem=30GB
#P UB3LYP/6-311++G(d,p) nosym opt freq SCRF=(PCM,Solvent=n,n-DiMethylFormamide)

Oxidized

0 1
O                  4.9783680000      0.5779100000     -0.6554320000
C                  3.7091930000      0.1172350000     -0.4796150000
C                  3.5376510000     -1.2734160000     -0.4198030000
C                  2.2722600000     -1.8040310000     -0.2425830000
C                  1.1530550000     -0.9691430000     -0.1212770000
C                 -0.1921760000     -1.5824740000      0.0683700000
O                 -0.3065240000     -2.7964300000      0.1165030000
C                 -1.3572090000     -0.6580170000      0.1923920000
C                 -2.6578280000     -1.1481230000      0.3723020000
O                 -2.8934870000     -2.4824680000      0.4386300000
C                 -3.7329750000     -0.2436310000      0.4854700000
C                 -3.5447290000      1.1164080000      0.4243950000
C                 -2.2541380000      1.6413050000      0.2447340000
O                 -2.1348780000      2.9743650000      0.1931810000
C                 -1.1590530000      0.7570070000      0.1284930000
C                  0.1787870000      1.3307430000     -0.0586160000
O                  0.3523140000      2.5596610000     -0.1140830000
C                  1.3357520000      0.4181760000     -0.1824880000
C                  2.6108120000      0.9619140000     -0.3612750000
H                  4.9805270000      1.5411830000     -0.6817470000
H                  4.4079120000     -1.9115470000     -0.5144890000
H                  2.1211480000     -2.8751010000     -0.1941100000
H                 -3.8376510000     -2.6300370000      0.5638720000
H                 -4.7354450000     -0.6391240000      0.6246750000
H                 -4.3752710000      1.8057700000      0.5121080000
H                 -1.1732070000      3.1713630000      0.0646600000
H                  2.7167930000      2.0405000000     -0.4042650000


