%chk=004.chk
%nproc=8
%mem=30GB
#P UB3LYP/6-311++G(d,p) nosym opt freq

Oxidized

0 1
C         -1.27228        1.93017        0.33157
C         -2.57682        1.23500        0.28254
C         -2.67999       -0.08620       -0.01976
C         -1.39261       -0.82521       -0.30663
C         -0.09276       -0.11604       -0.25338
C         -0.03071        1.18549        0.04752
Br         1.67007        2.06796        0.10624
C         -4.09392       -0.73595       -0.04896
C         -4.96918       -0.02065       -1.10390
C         -4.75198       -0.60184        1.34360
C         -4.08345       -2.23977       -0.40730
O         -1.22784        3.11877        0.60710
O         -1.37800       -2.01156       -0.58696
H         -3.45808        1.82862        0.49971
H          0.82169       -0.66396       -0.46231
H         -5.09083        1.05879       -0.87892
H         -5.98744       -0.46560       -1.13864
H         -4.51220       -0.11558       -2.11268
H         -4.86533        0.45886        1.64809
H         -4.13766       -1.11964        2.11174
H         -5.76728       -1.05482        1.34524
H         -3.66196       -2.40519       -1.42208
H         -5.11757       -2.64860       -0.41359
H         -3.50711       -2.82470        0.34127







