$molecule
-2 1
C                  0.2563670000      1.4871960000     -0.7800330000
C                 -0.9325920000      0.6761780000     -0.7779550000
C                 -0.8874510000     -0.7243690000     -0.8663000000
C                  0.3520390000     -1.4529850000     -0.9304040000
C                  1.5409890000     -0.6419700000     -0.9325260000
C                  1.4958460000      0.7585810000     -0.8441830000
O                  0.2127650000      2.7914110000     -0.7535880000
O                  0.3956540000     -2.7572040000     -0.9565980000
C                  2.7679820000      1.5754790000     -0.8563380000
C                  2.8642220000     -1.3708590000     -0.9909070000
C                 -2.2558320000      1.4050670000     -0.7195630000
C                 -2.1595780000     -1.5412690000     -0.8541440000
H                  3.5227570000      1.1883370000     -0.1590930000
H                  2.5182020000      2.6064900000     -0.5934800000
H                  3.2525920000      1.5985730000     -1.8528380000
H                  2.6709210000     -2.4166960000     -1.2426200000
H                  3.4021670000     -1.3603350000     -0.0218700000
H                  3.5526120000     -0.9341690000     -1.7264700000
H                 -2.0624600000      2.4510170000     -0.4683760000
H                 -2.9439970000      0.9687240000      0.0164270000
H                 -2.7940690000      1.3940380000     -1.6884240000
H                 -2.9146090000     -1.1537220000     -1.5508780000
H                 -2.6438060000     -1.5649460000      0.1425350000
H                 -1.9099190000     -2.5721470000     -1.1176330000
$end

$rem
   BASIS  =  6-311++G(d,p)
   GUI  =  2
   JOB_TYPE  =  SP
   METHOD  =  B3LYP
   SCF_CONVERGENCE  = 8
   SOLVENT_METHOD = sm12
$end

$smx
   solvent dimethylformamide
   charges CM5
$end





