$molecule
-2 1
C                  3.3219330000     -0.9344130000     -0.0939100000
O                  1.9457730000     -1.1614580000      0.0902320000
C                  1.0677350000     -0.1177050000     -0.0841630000
C                  1.5297320000      1.1412310000     -0.4556530000
C                  0.6190990000      2.2073330000     -0.6416280000
C                 -0.7248340000      2.0033680000     -0.4392520000
C                 -1.2310890000      0.7404580000     -0.0480150000
C                 -2.6796580000      0.6363950000      0.1422230000
O                 -3.4707770000      1.6395230000     -0.0159280000
C                 -3.1313780000     -0.6635150000      0.5016740000
C                 -2.2774520000     -1.7469010000      0.6670780000
C                 -0.8520710000     -1.7080920000      0.5067400000
O                 -0.1451200000     -2.7544320000      0.6925980000
C                 -0.3271300000     -0.3832960000      0.1273890000
H                  3.8214140000     -1.8768540000      0.1438170000
H                  3.5718600000     -0.6557200000     -1.1292600000
H                  3.7189410000     -0.1526850000      0.5721410000
H                  2.5852530000      1.3130410000     -0.6219420000
H                  0.9978590000      3.1835010000     -0.9395970000
H                 -1.4543950000      2.7957270000     -0.5672300000
H                 -4.2049330000     -0.7856720000      0.6469560000
H                 -2.6807630000     -2.7198340000      0.9457300000
$end
$rem
   MAX_SCF_CYCLES=200
   BASIS  =  6-311++G(d,p)
   GUI  =  2
   JOB_TYPE  =  SP
   METHOD  =  B3LYP
   SOLVENT_METHOD = COSMO
$end
$solvent
   dielectric 37.219
   opticaldielectric 1.43
$end





