%chk=335-an.chk
%nproc=8
%mem=30GB
#P UB3LYP/6-311++G(d,p) nosym opt freq

Reduced

-2 1
O     0.1278433781    0.3987387059    2.5717804593
C     0.0573771021    0.2062536324    1.3302051993
C    -1.1563453551    0.1070111491    0.6788518280
C    -2.3330803966    0.2178581300    1.3822559091
C    -3.5298013320    0.1152622373    0.7094403257
C    -3.5595517822   -0.0961600163   -0.6538440464
C    -2.3925485073   -0.2101966534   -1.3778797515
C    -1.1847094196   -0.1045195531   -0.6850898045
O    -0.0806311596   -0.2148085501   -1.3855767806
C     1.1151705464   -0.1305314287   -0.8308856485
C     2.2738670218   -0.2482002792   -1.5784456374
C     3.5142877292   -0.1574732759   -0.9817243947
C     3.6074945070    0.0531672849    0.3771481508
C     2.4473736528    0.1693737430    1.1152424627
C     1.1857457851    0.0814139632    0.5361368825
H    -2.2999621810    0.3804591754    2.4308578694
H    -4.4860352709    0.1937697865    1.2064466016
H    -4.5208249578   -0.1749876177   -1.1712790913
H    -2.4490570650   -0.3746550607   -2.4385519899
H     2.2129986286   -0.4154319257   -2.6571605171
H     4.4074689646   -0.2571144582   -1.6155859712
H     4.5808041662    0.1245573303    0.8467154344
H     2.4621159452    0.3362136810    2.1909425101


