%chk=312-an.chk
%nproc=8
%mem=30GB
#P UB3LYP/6-311++G(d,p) nosym opt freq SCRF=(PCM,Solvent=n,n-DiMethylFormamide)

Reduced

-2 1
C                  3.7655890000      0.1397920000     -0.1979730000
C                  2.7365840000      0.1270690000      0.9551200000
C                  1.2999130000      0.2456950000      0.5257610000
C                  0.5854660000     -0.9838800000      0.3145800000
O                  1.1674670000     -2.1090780000      0.4509010000
C                 -0.8407040000     -0.8578050000     -0.0522990000
C                 -1.6701680000     -1.9936090000     -0.2865370000
O                 -1.2106960000     -3.3045770000     -0.1939850000
C                 -3.0020940000     -1.8211360000     -0.6301310000
O                 -3.8011370000     -2.9600490000     -0.8597870000
C                 -3.5541840000     -0.5522310000     -0.7646670000
O                 -4.8899410000     -0.3917920000     -1.1261140000
C                 -2.8159590000      0.6089860000     -0.5601050000
C                 -1.4333940000      0.4566540000     -0.1876450000
C                 -0.6544290000      1.6346820000      0.0386210000
C                  0.6721250000      1.5063820000      0.3881790000
O                  1.3998840000      2.6867680000      0.6010320000
O                 -1.2189220000      2.8888800000     -0.1030980000
O                 -3.4520070000      1.7634420000     -0.7243870000
H                  3.5580760000     -0.6919820000     -0.8761300000
H                  3.7111040000      1.0685190000     -0.7774700000
H                  4.7967770000      0.0343980000      0.1793090000
H                  2.8318790000     -0.8326810000      1.4750710000
H                  3.0195410000      0.9097720000      1.6864880000
H                 -1.9597260000     -3.8484400000     -0.4658530000
H                  2.2740280000      2.4136140000      0.8935480000
H                 -2.1653860000      2.7078180000     -0.3648070000
H                 -4.6513210000     -2.6177010000     -1.1589580000
H                 -4.9341960000      0.5933460000     -1.1377900000


