$molecule
-2 1
O                 -1.3310070000     -2.6169420000      0.8440890000
C                 -1.1533770000     -1.4172400000      0.4306170000
C                 -2.3706430000     -0.6204920000      0.0835230000
O                 -2.5271770000     -0.1355500000     -1.2810310000
C                 -2.2744870000      0.8365060000     -0.2232560000
C                 -0.9575030000      1.5431750000     -0.1970050000
O                 -0.9650910000      2.8169220000     -0.3381710000
C                  0.1789950000      0.7150270000      0.0023190000
C                  1.4859240000      1.2858410000     -0.0761510000
C                  2.6303810000      0.5688270000      0.1723880000
C                  2.5340850000     -0.8188330000      0.5359790000
C                  1.3005080000     -1.4191020000      0.6021560000
C                  0.0835240000     -0.7279300000      0.3200120000
H                 -3.2977840000     -1.0277410000      0.4930590000
H                 -3.1325800000      1.4875460000     -0.0426090000
H                  1.5396780000      2.3385700000     -0.3396700000
H                  3.6083350000      1.0437780000      0.1067750000
H                  3.4391250000     -1.3857420000      0.7478070000
H                  1.2090960000     -2.4666200000      0.8751590000
$end
$rem
   MAX_SCF_CYCLES=200
   BASIS  =  6-311++G(d,p)
   GUI  =  2
   JOB_TYPE  =  SP
   METHOD  =  B3LYP
   SOLVENT_METHOD = PCM
$end
$pcm
   theory = CPCM
$end
$solvent
   dielectric 37.219
   opticaldielectric 1.43
$end






