$molecule
-1 2
C                 -1.2647740000      2.8505540000      0.2442110000
C                 -2.5930790000      2.4457440000      0.1703220000
C                 -2.9206720000      1.1060960000     -0.0594860000
C                 -0.2061580000      1.9218960000      0.0596170000
C                 -0.5611830000      0.5573030000     -0.1958270000
C                 -1.9221180000      0.1637300000     -0.2189540000
C                  1.2201140000      2.3231100000      0.1172440000
C                  2.1738860000      1.2692790000     -0.1357950000
C                  1.8251370000     -0.0235550000     -0.4274960000
C                  0.4619020000     -0.4562440000     -0.5000110000
O                  1.6042970000      3.4905970000      0.3667540000
O                  0.1357330000     -1.6325530000     -0.8250510000
O                 -0.9830330000      4.1684650000      0.4861890000
H                 -3.9613770000      0.8028370000     -0.0997820000
H                  2.5817670000     -0.7752590000     -0.6338300000
C                 -2.3464870000     -1.2624390000     -0.3915230000
O                 -2.9681690000     -1.6980150000     -1.3355300000
O                 -2.1281940000     -1.9843400000      0.7392180000
C                 -2.2927360000     -3.3970450000      0.5996770000
H                 -3.3818210000      3.1831100000      0.3037410000
H                  3.2165440000      1.5702820000     -0.0929550000
H                 -1.8247500000      4.6306790000      0.5639390000
H                 -2.0857390000     -3.8175530000      1.5837230000
H                 -1.5757190000     -3.7739480000     -0.1328180000
H                 -3.3078210000     -3.6488680000      0.2830140000
$end
$rem
   MAX_SCF_CYCLES=200
   BASIS  =  6-311++G(d,p)
   GUI  =  2
   JOB_TYPE  =  SP
   METHOD  =  B3LYP
   SOLVENT_METHOD = COSMO
$end
$solvent
   dielectric 37.219
   opticaldielectric 1.43
$end





