$molecule
0 1
C                  1.3505880000      4.2125280000      5.2280880000
C                  1.8316280000      4.0647430000      3.8300850000
C                  1.6453550000      2.9454210000      3.1139020000
C                  0.9817780000      1.7592570000      3.7390210000
C                  0.4061570000      1.9478340000      5.0946020000
C                  0.5317400000      3.0920030000      5.7852930000
O                  1.6623070000      5.1868750000      5.8854910000
O                  0.9428060000      0.6742420000      3.1938140000
H                  2.3632610000      4.9212260000      3.4311290000
C                 -0.1000180000      3.2018640000      7.1458710000
O                 -0.0880110000      2.3111200000      7.9599310000
O                 -0.7111250000      4.3783800000      7.3061970000
C                 -1.3524020000      4.5936360000      8.5812900000
H                 -1.7817210000      5.5903050000      8.5203820000
H                 -0.6161610000      4.5380290000      9.3834810000
H                 -2.1281030000      3.8451160000      8.7460250000
C                  2.0447260000      2.8529240000      1.6700670000
O                  3.3131550000      3.2525530000      1.4815160000
O                  1.2959490000      2.4997450000      0.7971510000
C                  3.7788110000      3.2380070000      0.1136050000
H                 -0.1175100000      1.0921720000      5.5065370000
H                  4.8140240000      3.5664840000      0.1597280000
H                  3.1822670000      3.9182970000     -0.4950860000
H                  3.7092580000      2.2297760000     -0.2950980000
$end

$rem
   BASIS  =  6-311++G(d,p)
   GUI  =  2
   JOB_TYPE  =  SP
   METHOD  =  B3LYP
   SCF_CONVERGENCE  = 8
   SOLVENT_METHOD = sm12
$end

$smx
   solvent dimethylformamide
   charges CM5
$end





