$molecule
0 1
C                 -4.9829600000     -1.4364650000     -0.5850250000
C                 -3.5433410000     -1.7298350000     -0.2879670000
O                 -3.0962410000     -2.2596890000      0.6874190000
O                 -2.7484600000     -1.3077540000     -1.3406740000
C                 -1.3767260000     -1.3093160000     -1.1740020000
C                 -0.6773360000     -2.3148660000     -1.8312710000
C                  0.7043780000     -2.3458290000     -1.7810210000
C                  1.3985700000     -1.3714190000     -1.0732590000
O                  2.7774210000     -1.4318630000     -1.1399330000
C                  3.4740860000     -1.8854480000     -0.0321340000
C                  4.9432200000     -1.6581810000     -0.2238800000
O                  2.9339910000     -2.3909490000      0.9084980000
C                  0.7194300000     -0.3329490000     -0.4140920000
C                  1.4794020000      0.7440770000      0.2972170000
O                  2.6887770000      0.6940550000      0.4531350000
C                  0.7142610000      1.9153070000      0.8070080000
C                  1.4143070000      2.9899700000      1.3663860000
C                  0.7235610000      4.0890960000      1.8596920000
C                 -0.6736510000      4.1198550000      1.8097650000
C                 -1.3750620000      3.0513680000      1.2666900000
C                 -0.6847680000      1.9461220000      0.7569750000
C                 -1.4622420000      0.8089380000      0.1918090000
O                 -2.6806820000      0.8122380000      0.2608960000
C                 -0.7014300000     -0.3013570000     -0.4654330000
H                 -5.1356960000     -0.3597410000     -0.4788850000
H                 -5.6161060000     -1.9689750000      0.1216180000
H                 -5.2322970000     -1.7129690000     -1.6106360000
H                 -1.2361320000     -3.0657360000     -2.3756230000
H                  1.2670800000     -3.1219020000     -2.2844670000
H                  5.1366350000     -0.5895400000     -0.1031760000
H                  5.2531060000     -1.9455250000     -1.2297860000
H                  5.4988930000     -2.2189620000      0.5248240000
H                  2.4949940000      2.9398380000      1.4048920000
H                  1.2689770000      4.9224990000      2.2875810000
H                 -1.2110600000      4.9770850000      2.1989670000
H                 -2.4569000000      3.0488230000      1.2278930000
$end
$rem
   MAX_SCF_CYCLES=200
   BASIS  =  6-311++G(d,p)
   GUI  =  2
   JOB_TYPE  =  SP
   METHOD  =  B3LYP
   SOLVENT_METHOD = PCM
$end
$pcm
   theory = CPCM
$end
$solvent
   dielectric 37.219
   opticaldielectric 1.43
$end





