%chk=021.chk
%nproc=8
%mem=30GB
#P UB3LYP/6-311++G(d,p) nosym opt freq SCRF=(PCM,Solvent=n,n-DiMethylFormamide)

Oxidized

0 1
Br                -1.6035740000      2.5479510000      1.3449810000
C                 -0.7747680000      1.0562010000      0.5049100000
C                 -1.4771220000      0.0518120000     -0.0572180000
C                 -0.7262620000     -1.0400130000     -0.7750530000
O                 -1.3269220000     -1.9461160000     -1.3106010000
C                  0.7692750000     -0.9700100000     -0.8080620000
C                  1.4734110000      0.0063010000     -0.2005050000
C                  0.7218020000      1.1103830000      0.4975010000
O                  1.3225150000      2.0157900000      1.0341660000
C                  2.9547030000      0.0939180000     -0.1584770000
C                  3.6171320000      1.1924880000     -0.7190060000
C                  5.0058130000      1.2710280000     -0.6769350000
C                  5.7461660000      0.2687620000     -0.0523950000
C                  5.0916870000     -0.8175980000      0.5254680000
C                  3.7041550000     -0.9086350000      0.4677080000
Br                 1.5914560000     -2.3589840000     -1.8143010000
C                 -2.9558120000     -0.0769770000     -0.0331360000
C                 -3.6866730000     -0.0913820000     -1.2270810000
C                 -5.0725490000     -0.2137500000     -1.2002490000
C                 -5.7409900000     -0.3496650000      0.0152440000
C                 -5.0175150000     -0.3562780000      1.2064560000
C                 -3.6332300000     -0.2144160000      1.1838570000
H                  3.0472600000      1.9831010000     -1.1913940000
H                  5.5084180000      2.1207760000     -1.1243910000
H                  6.8273940000      0.3363740000     -0.0121450000
H                  5.6603760000     -1.5961990000      1.0208360000
H                  3.2000230000     -1.7561030000      0.9166920000
H                 -3.1723080000     -0.0028790000     -2.1760700000
H                 -5.6289000000     -0.2122890000     -2.1305000000
H                 -6.8198320000     -0.4545940000      0.0337240000
H                 -5.5298000000     -0.4706670000      2.1548710000
H                 -3.0753260000     -0.2183310000      2.1126530000


