$molecule
-1 2
C                  4.8915630000     -2.8649630000     -0.3572020000
C                  5.6112850000     -1.9705090000     -1.1232330000
C                  5.0140990000     -0.7616950000     -1.5454740000
C                  3.5568590000     -2.5937010000      0.0169040000
C                  2.9549630000     -1.3753480000     -0.4086790000
C                  3.7110810000     -0.4754290000     -1.1918690000
C                  2.8233160000     -3.5551450000      0.8246340000
C                  1.4585020000     -3.2295720000      1.1812670000
C                  0.8522750000     -2.0024180000      0.7526460000
C                  1.5841020000     -1.0465920000     -0.0515520000
C                  0.7021800000     -4.1410120000      1.9709500000
C                 -0.6096140000     -3.8340790000      2.3169840000
C                 -0.4925150000     -1.7225840000      1.1262930000
C                 -1.2010530000     -2.6368650000      1.8988300000
O                  3.3698770000     -4.6469740000      1.2030170000
O                  1.0501730000      0.0489590000     -0.4371630000
O                  1.2416240000     -5.3094340000      2.3937120000
H                  5.3259570000     -3.7988060000     -0.0205210000
H                  6.6364470000     -2.1943550000     -1.4021890000
H                  5.5815370000     -0.0589720000     -2.1480320000
H                  3.2298010000      0.4443360000     -1.5025390000
H                  2.1769400000     -5.3072150000      2.0269860000
O                 -1.0975820000     -0.5738520000      0.7399810000
H                 -2.2239080000     -2.3992430000      2.1696330000
H                 -1.1635700000     -4.5457190000      2.9192590000
H                 -0.4020480000     -0.0858040000      0.2039150000
$end

$rem
   BASIS  =  6-311++G(d,p)
   GUI  =  2
   JOB_TYPE  =  SP
   METHOD  =  B3LYP
   SCF_CONVERGENCE  = 8
   SOLVENT_METHOD = sm12
$end

$smx
   solvent dimethylformamide
   charges CM5
$end





