$molecule
-2 1
C                 -1.7712170000      2.7400560000     -0.8177360000
C                 -2.8779010000      1.9345400000     -0.6288520000
C                 -2.7004430000      0.6002000000     -0.1793580000
C                 -0.4483310000      2.2870010000     -0.5969310000
C                 -0.2637620000      0.9021490000     -0.1971580000
C                 -1.4202650000      0.1150230000      0.0286740000
C                  0.6536400000      3.2206890000     -0.7939250000
C                  2.0302010000      2.6795370000     -0.5760320000
C                  2.1351190000      1.2914860000     -0.2006090000
C                  1.0705510000      0.4185170000     -0.0220760000
O                  0.4570540000      4.4195290000     -1.1441340000
O                  3.0606990000      3.3950290000     -0.7307140000
H                 -1.8752470000      3.7705130000     -1.1431930000
H                 -3.8785330000      2.3228300000     -0.8076150000
H                 -3.5595820000     -0.0405320000      0.0049460000
H                 -1.3177470000     -0.9024820000      0.3979820000
H                  3.1549890000      0.9394340000     -0.0804180000
N                  1.2602600000     -0.9226520000      0.4150460000
C                  2.5378340000     -1.5917160000      0.2329170000
C                  2.4904300000     -3.0180150000      0.7831770000
H                  0.5046910000     -1.5158440000      0.1041740000
H                  3.3084370000     -1.0224480000      0.7571280000
H                  2.8448080000     -1.6222930000     -0.8313600000
H                  2.2445350000     -3.0248020000      1.8497040000
H                  3.4530290000     -3.5234520000      0.6493000000
H                  1.7402620000     -3.6286180000      0.2654130000
$end
$rem
   MAX_SCF_CYCLES=200
   BASIS  =  6-311++G(d,p)
   GUI  =  2
   JOB_TYPE  =  SP
   METHOD  =  B3LYP
   SOLVENT_METHOD = COSMO
$end
$solvent
   dielectric 37.219
   opticaldielectric 1.43
$end





