$molecule
0 1
O                  1.4223280000      2.2446740000     -0.0220020000
C                  0.7909100000      1.2022170000     -0.0977720000
C                 -0.6828800000      1.2382940000     -0.1616670000
C                 -1.4680860000      0.1421810000     -0.2217890000
C                 -0.7908070000     -1.2022080000     -0.2249090000
O                 -1.4221590000     -2.2446120000     -0.3017790000
C                  0.6829600000     -1.2382910000     -0.1604120000
C                  1.4681420000     -0.1421730000     -0.1001560000
C                  2.9413550000     -0.2319210000     -0.0175220000
C                  3.5355100000     -1.2290110000      0.7730950000
C                  4.9187610000     -1.3602280000      0.8346220000
C                  5.7349590000     -0.4987590000      0.1030170000
C                  5.1575720000      0.4979230000     -0.6820330000
C                  3.7744440000      0.6393500000     -0.7375130000
C                 -2.9413490000      0.2319260000     -0.3036680000
C                 -3.5359600000      1.2294530000     -1.0934000000
C                 -4.9192470000      1.3606610000     -1.1541120000
C                 -5.7350290000      0.4987540000     -0.4225720000
C                 -5.1572020000     -0.4983690000      0.3615830000
C                 -3.7740410000     -0.6397920000      0.4162390000
H                 -1.1042960000      2.2367730000     -0.1267910000
H                  1.1044100000     -2.2367680000     -0.1951060000
H                  2.9081850000     -1.8881330000      1.3622730000
H                  5.3588300000     -2.1291540000      1.4593750000
H                  6.8133850000     -0.5993450000      0.1498920000
H                  5.7864450000      1.1722610000     -1.2521180000
H                  3.3393740000      1.4219880000     -1.3429510000
H                 -2.9089740000      1.8889080000     -1.6825490000
H                 -5.3596680000      2.1299280000     -1.7781970000
H                 -6.8134840000      0.5993430000     -0.4688080000
H                 -5.7857430000     -1.1730730000      0.9316010000
H                 -3.3386460000     -1.4227960000      1.0209730000
$end
$rem
   MAX_SCF_CYCLES=200
   BASIS  =  6-311++G(d,p)
   GUI  =  2
   JOB_TYPE  =  SP
   METHOD  =  B3LYP
   SOLVENT_METHOD = PCM
$end
$pcm
   theory = CPCM
$end
$solvent
   dielectric 37.219
   opticaldielectric 1.43
$end





