$molecule
-2 1
C                 -1.6944060000      3.0811340000      0.2855080000
C                 -2.8698070000      2.3660800000      0.1503090000
C                 -2.8217750000      0.9761490000     -0.1336300000
C                 -0.4209380000      2.4733830000      0.1476160000
C                 -0.3758990000      1.0576460000     -0.1304940000
C                 -1.5915350000      0.3538290000     -0.2644570000
C                  0.7712950000      3.2901070000      0.3114170000
C                  2.0128030000      2.5696450000      0.1652150000
C                  2.0389060000      1.1861290000     -0.1123630000
C                  0.8962580000      0.3562980000     -0.2702830000
O                  0.6923970000      4.5476980000      0.5910840000
O                  0.9643420000     -0.9037020000     -0.5266870000
N                  3.2336080000      3.2880540000      0.3848570000
C                  3.4008180000      4.4968970000     -0.4161740000
C                  4.4607040000      2.5276240000      0.4535970000
H                 -1.7009350000      4.1444740000      0.5045170000
H                 -3.8305220000      2.8674500000      0.2611280000
H                 -3.7431660000      0.4062950000     -0.2435620000
H                 -1.5129410000     -0.7085040000     -0.4773930000
H                  2.9896090000      0.6805830000     -0.2433100000
H                  2.4726370000      5.0661840000     -0.3735780000
H                  3.6549000000      4.2590030000     -1.4727640000
H                  4.2225660000      5.0975500000     -0.0046210000
H                  4.3655690000      1.7092850000      1.1701700000
H                  5.2726200000      3.1852430000      0.7805580000
H                  4.7717890000      2.0872560000     -0.5210310000
$end

$rem
   BASIS  =  6-311++G(d,p)
   GUI  =  2
   JOB_TYPE  =  SP
   METHOD  =  B3LYP
   SCF_CONVERGENCE  = 8
   SOLVENT_METHOD = sm12
$end

$smx
   solvent dimethylformamide
   charges CM5
$end





