%chk=257-rad.chk
%nproc=8
%mem=30GB
#P UB3LYP/6-311++G(d,p) nosym  opt freq SCRF=(PCM,Solvent=n,n-DiMethylFormamide)

Radical

-1 2
C                  3.9072710000      0.6020160000     -0.1059150000
O                  2.6767440000      1.2873610000     -0.1597060000
C                  1.5208500000      0.5486790000     -0.1002330000
C                  1.5029790000     -0.8279300000      0.0092350000
C                  0.2918380000     -1.5994640000      0.0713020000
O                  0.2989360000     -2.8553120000      0.1715370000
C                 -0.9613260000     -0.8284810000      0.0109990000
C                 -2.1991830000     -1.4964100000      0.0649680000
C                 -3.3924220000     -0.7980640000      0.0102780000
C                 -3.3748420000      0.6075430000     -0.1014390000
C                 -2.1697860000      1.2827420000     -0.1559630000
C                 -0.9411680000      0.5896830000     -0.1017530000
C                  0.3115340000      1.3528590000     -0.1632650000
O                  0.3340450000      2.6066690000     -0.2628530000
H                  4.0247830000      0.0438520000      0.8321500000
H                  4.6816860000      1.3687330000     -0.1673030000
H                  4.0239100000     -0.0973490000     -0.9441540000
H                  2.4193840000     -1.4036980000      0.0545530000
H                 -2.1773670000     -2.5772170000      0.1507890000
H                 -4.3392120000     -1.3287280000      0.0531020000
H                 -4.3094930000      1.1598010000     -0.1446700000
H                 -2.1291620000      2.3627150000     -0.2417560000


