$molecule
0 1
C                 -1.8186380000      2.8111510000     -0.7528290000
C                 -2.9172350000      1.9849110000     -0.5315540000
C                 -2.7206600000      0.6533920000     -0.1688140000
C                 -0.5229380000      2.3140590000     -0.6136330000
C                 -0.3240120000      0.9673870000     -0.2467900000
C                 -1.4313810000      0.1437100000     -0.0261820000
C                  0.6394960000      3.2176600000     -0.8556580000
C                  2.0667950000      2.6137600000     -0.6872010000
C                  2.1512460000      1.2145550000     -0.3063700000
C                  1.0467670000      0.4554920000     -0.1032890000
O                  0.5088560000      4.3772190000     -1.1713050000
O                  3.0395800000      3.3174050000     -0.8755600000
H                 -1.9427450000      3.8495300000     -1.0355680000
H                 -3.9216950000      2.3768090000     -0.6412470000
H                 -3.5730450000      0.0065600000      0.0044640000
H                 -1.2792310000     -0.8896000000      0.2553490000
H                  3.1482960000      0.8002740000     -0.1906140000
O                  1.1060900000     -0.8483430000      0.2516090000
H                  2.0264060000     -1.1275640000      0.3306320000
$end

$rem
   BASIS  =  6-311++G(d,p)
   GUI  =  2
   JOB_TYPE  =  SP
   METHOD  =  B3LYP
   SCF_CONVERGENCE  = 8
   SOLVENT_METHOD = sm12
$end

$smx
   solvent dimethylformamide
   charges CM5
$end





