%chk=212-rad.chk
%nproc=8
%mem=30GB
#P UB3LYP/6-311++G(d,p) nosym  opt freq SCRF=(PCM,Solvent=n,n-DiMethylFormamide)

Radical

-1 2
O                  3.8859540000     -2.4581060000     -0.0750130000
C                  3.0215220000     -1.5497150000     -0.0033630000
C                  3.3894900000     -0.1581880000      0.2297870000
C                  4.7497580000      0.1880290000      0.3874970000
C                  5.1307510000      1.4963710000      0.6046700000
C                  4.1493980000      2.5104570000      0.6696810000
C                  2.8152930000      2.1913450000      0.5162980000
C                  2.4006630000      0.8578610000      0.2956540000
C                  0.9670200000      0.5823320000      0.1407140000
O                  0.1471840000      1.5376110000      0.1810320000
C                  0.5725030000     -0.8176280000     -0.0656400000
C                 -0.7988210000     -1.2417980000     -0.1993340000
C                 -1.0865270000     -2.5792540000     -0.4269380000
C                 -0.0795850000     -3.5561600000     -0.5228450000
C                  1.2356160000     -3.1793940000     -0.3787130000
C                  1.5877730000     -1.8334330000     -0.1488280000
N                 -1.9548490000     -0.3910920000     -0.1118200000
C                 -2.2686630000      0.1834010000      1.1978160000
C                 -3.7819260000      0.4676030000      1.2894950000
C                 -4.3459690000      0.9792430000     -0.0597810000
C                 -3.2257980000      1.5665670000     -0.9252770000
C                 -2.1794060000      0.4953610000     -1.2648570000
H                  5.4770330000     -0.6136230000      0.3302410000
H                  6.1804740000      1.7476980000      0.7247380000
H                  4.4459690000      3.5413340000      0.8401900000
H                  2.0434680000      2.9504340000      0.5603210000
H                 -2.1326040000     -2.8498070000     -0.5215500000
H                 -0.3435140000     -4.5944140000     -0.7008820000
H                  2.0467110000     -3.8954680000     -0.4344800000
H                 -1.6886530000      1.0937620000      1.3927020000
H                 -1.9820290000     -0.5487140000      1.9569900000
H                 -3.9494680000      1.2120500000      2.0776810000
H                 -4.3174130000     -0.4398250000      1.5886630000
H                 -5.1348790000      1.7207540000      0.1102720000
H                 -4.8097510000      0.1485180000     -0.6037930000
H                 -3.6267980000      1.9845620000     -1.8552780000
H                 -2.7385400000      2.3892800000     -0.3921100000
H                 -1.2547230000      0.9866950000     -1.5863190000
H                 -2.5466630000     -0.1246470000     -2.0964190000


