$molecule
-2 1
C                  4.6170820000      1.3055920000     -0.5064440000
C                  3.3046060000      0.6141260000     -0.2277920000
C                  3.3039920000     -0.6636420000      0.3908020000
C                  2.1134000000     -1.3280020000      0.6674470000
O                  2.2008350000     -2.5480220000      1.3138870000
C                  0.8437420000     -0.7925010000      0.3125530000
C                 -0.4079710000     -1.5249570000      0.5449210000
O                 -0.4359640000     -2.7183730000      0.9381260000
C                 -1.6369680000     -0.7642230000      0.2576330000
C                 -2.9307670000     -1.2758440000      0.5451670000
O                 -3.0769810000     -2.5013160000      1.1665370000
C                 -4.1001470000     -0.5792590000      0.2377060000
C                 -4.0103560000      0.6882720000     -0.3693660000
O                 -5.2194100000      1.3387620000     -0.6547540000
C                 -2.7952500000      1.2405530000     -0.6583980000
C                 -1.5872290000      0.5478970000     -0.3528380000
C                 -0.3521440000      1.2165960000     -0.6742190000
O                 -0.3402260000      2.3770280000     -1.2366820000
C                  0.8551410000      0.5221390000     -0.3004950000
C                  2.0936500000      1.1798850000     -0.5468070000
H                  5.2136390000      1.4461920000      0.4116760000
H                  4.4582940000      2.2909050000     -0.9551310000
H                  5.2464520000      0.7257700000     -1.1922380000
H                  4.2487880000     -1.1474490000      0.6406810000
H                  3.1165970000     -2.6171200000      1.6094840000
H                 -4.0135070000     -2.5749040000      1.3823240000
H                 -5.0749890000     -1.0098300000      0.4539230000
H                 -4.9776990000      2.1713330000     -1.0732720000
H                 -2.6868990000      2.2189040000     -1.1204030000
H                  2.0302880000      2.1614910000     -1.0040260000
$end

$rem
   BASIS  =  6-311++G(d,p)
   GUI  =  2
   JOB_TYPE  =  SP
   METHOD  =  B3LYP
   SCF_CONVERGENCE  = 8
   SOLVENT_METHOD = sm12
$end

$smx
   solvent dimethylformamide
   charges CM5
$end





