$molecule
-1 2
C                 -2.7481820000     -1.6291090000      0.0446460000
O                 -2.2479190000     -0.6505660000     -0.8705430000
C                 -1.2057720000      0.1164790000     -0.4214510000
C                 -1.3432270000      1.4794800000     -0.3322090000
Br                -3.0341910000      2.2914930000     -0.7437920000
C                 -0.2716220000      2.3881410000      0.0615440000
O                 -0.4120570000      3.6226960000      0.1363030000
C                  0.9814470000      1.7021090000      0.3587320000
C                  1.1535930000      0.3422440000      0.2834350000
O                  2.3469080000     -0.2202210000      0.6518800000
C                  3.0409400000     -0.9451080000     -0.3670950000
C                  0.0611300000     -0.5376440000     -0.1153210000
O                  0.2034690000     -1.7885110000     -0.1909650000
Br                 2.4532800000      2.8169740000      0.8866660000
H                 -3.1430640000     -1.1407490000      0.9441460000
H                 -3.5643480000     -2.1337400000     -0.4753900000
H                 -1.9696270000     -2.3447830000      0.3118160000
H                  3.9565750000     -1.3125340000      0.0996380000
H                  2.4388880000     -1.7798790000     -0.7282380000
H                  3.3037810000     -0.2767710000     -1.1963830000
$end
$rem
   MAX_SCF_CYCLES=200
   BASIS  =  6-311++G(d,p)
   GUI  =  2
   JOB_TYPE  =  SP
   METHOD  =  B3LYP
   SOLVENT_METHOD = PCM
$end
$pcm
   theory = CPCM
$end
$solvent
   dielectric 37.219
   opticaldielectric 1.43
$end





