$molecule
0 1
C                 -3.2567610000      0.0619150000      1.0087520000
C                 -1.9377220000     -0.0124970000      0.3025790000
C                 -1.8142350000     -0.2279730000     -1.0204710000
C                 -0.5162220000     -0.3022480000     -1.7221790000
O                 -0.4716810000     -0.5005280000     -2.9268010000
C                  0.7185620000     -0.1265550000     -0.9038940000
C                  1.9737590000     -0.1867580000     -1.5124400000
C                  3.1247140000     -0.0229480000     -0.7482580000
C                  3.0277960000      0.2017870000      0.6273580000
C                  1.7804330000      0.2630190000      1.2399190000
C                  0.6197810000      0.0994600000      0.4790690000
C                 -0.7125520000      0.1672760000      1.1470410000
O                 -0.8183650000      0.3630090000      2.3467640000
H                 -4.0836040000     -0.0799070000      0.3120770000
H                 -3.3143890000     -0.6966080000      1.7942580000
H                 -3.3697850000      1.0275780000      1.5091390000
H                 -2.6845260000     -0.3614680000     -1.6554140000
H                  2.0250280000     -0.3619610000     -2.5801150000
H                  4.0988010000     -0.0698930000     -1.2217270000
H                  3.9267970000      0.3289240000      1.2196500000
H                  1.6841720000      0.4363770000      2.3046930000
$end

$rem
   BASIS  =  6-311++G(d,p)
   GUI  =  2
   JOB_TYPE  =  SP
   METHOD  =  B3LYP
   SCF_CONVERGENCE  = 8
   SOLVENT_METHOD = sm12
$end

$smx
   solvent dimethylformamide
   charges CM5
$end





