%chk=300-rad.chk
%nproc=8
%mem=30GB
#P UB3LYP/6-311++G(d,p) nosym  opt freq Int=Acc2E=11

Radical

-1 2
 C                 -0.67616200    3.27132400    0.76976500
 C                 -1.49825300    3.40808400   -0.33334000
 C                 -1.04652300    3.00049000   -1.60489700
 C                  0.61978700    2.72576400    0.64301800
 C                  1.07795100    2.31285000   -0.64112900
 C                  0.22244200    2.46249300   -1.74653500
 C                  1.47991900    2.58322300    1.79851900
 C                  2.78779800    2.01431600    1.56856800
 C                  3.26561800    1.61171200    0.33933300
 C                  2.42492700    1.73357500   -0.83222500
 O                  1.17186900    2.91882400    2.98942200
 O                  2.81594600    1.36714300   -1.97131400
 O                  3.54073300    1.90772800    2.70225800
 C                  4.64473300    1.02506700    0.18286700
 C                  4.66174200   -0.51432700    0.24999600
 C                  6.06125100   -1.10962500    0.06119600
 C                  6.09364100   -2.64091800    0.12801900
 C                  7.49265700   -3.24015200   -0.05736200
 C                  7.52310400   -4.77145200    0.01001300
 C                  8.92272400   -5.37085700   -0.16938400
 C                  8.95019400   -6.90223700   -0.10207900
 C                 10.35080800   -7.50038700   -0.27177400
 C                 10.36698300   -9.03981500   -0.20169600
 C                 11.74628300   -9.63824200   -0.36337700
 C                 12.55861200   -9.90367200    0.73894000
 C                 12.27490900   -9.91715800   -1.63177300
 C                 13.55444200  -10.43114200   -1.79018500
 C                 14.35678200  -10.68688700   -0.67167300
 C                 13.84830600  -10.42368100    0.60183500
 O                 15.60596600  -11.18008500   -0.93991300
 C                 16.52266500  -11.46825500    0.12741600
 C                 16.19697500  -12.81848400    0.81178200
 C                 17.91856800  -11.48375000   -0.48899400
 C                 19.00477700  -11.66885900    0.59329700
 C                 18.54794300  -12.60395900    1.74077600
 C                 17.46513300  -13.57721400    1.25976000
 H                 -1.00102400    3.57755100    1.75780000
 H                 -2.49308400    3.82959100   -0.22102700
 H                 -1.69288100    3.10828400   -2.47089100
 H                  0.59539100    2.13985900   -2.71207200
 H                  2.93510100    2.27840400    3.38200000
 H                  5.30313300    1.42420800    0.96138500
 H                  5.03785500    1.33252600   -0.79149700
 H                  3.98996000   -0.90226800   -0.52316900
 H                  4.25533900   -0.83442200    1.21695600
 H                  6.73593400   -0.70136500    0.82635600
 H                  6.46386900   -0.78209600   -0.90662800
 H                  5.42129100   -3.04850400   -0.63815000
 H                  5.68612500   -2.96839100    1.09367600
 H                  8.16499500   -2.83183500    0.70898600
 H                  7.90054000   -2.91307900   -1.02296500
 H                  6.85381100   -5.17980000   -0.75857100
 H                  7.11140600   -5.09850800    0.97393900
 H                  9.59157400   -4.96355800    0.60014200
 H                  9.33553300   -5.04401600   -1.13272200
 H                  8.28585800   -7.30998500   -0.87534900
 H                  8.53147100   -7.22901200    0.85894700
 H                 11.01819700   -7.10101300    0.50153100
 H                 10.77423600   -7.18098900   -1.23175000
 H                  9.70286200   -9.43762600   -0.97765500
 H                  9.94281300   -9.35627700    0.75789400
 H                 12.18053100   -9.70907400    1.73815800
 H                 11.67055600   -9.72944500   -2.51418100
 H                 13.95541900  -10.64311200   -2.77446700
 H                 14.43219100  -10.62287000    1.49019000
 H                 16.47527400  -10.64881700    0.85520800
 H                 15.62678600  -13.42443800    0.10184300
 H                 15.54538100  -12.65185400    1.67414100
 H                 18.07872800  -10.55599000   -1.04300100
 H                 17.96131700  -12.29711100   -1.22096000
 H                 19.28638600  -10.69473200    1.00545700
 H                 19.90511100  -12.07177600    0.11966200
 H                 18.14431200  -12.00932500    2.56902000
 H                 19.40474400  -13.14890500    2.14736900
 H                 17.20810400  -14.29063300    2.04810100
 H                 17.86006500  -14.17063000    0.42744200









