%chk=070-rad.chk
%nproc=8
%mem=30GB
#P UB3LYP/6-311++G(d,p) nosym  opt freq

Radical

-1 2
C          1.11954        1.71978       -0.55228
C         -0.13451        1.22838        0.10624
C         -0.42899       -0.08622        0.13301
C          0.48047       -1.07328       -0.51623
C          1.67630       -0.57168       -1.20331
C          1.97937        0.72954       -1.21362
O          1.40843        2.90913       -0.51560
O          0.25661       -2.27710       -0.49507
S          3.39027        1.24629       -2.06718
C          4.38773        2.03209       -0.81648
C          4.45109        3.42593       -0.74404
C          5.15090        1.23668        0.04622
C          5.95607        1.84566        1.00860
C          5.25643        4.02637        0.22352
C          6.00487        3.23770        1.09903
O          3.02814        2.24603       -3.05494
O          4.15279        0.08291       -2.49511
H          3.87004        4.04778       -1.42252
H          5.13864        0.15201       -0.03242
H          5.30233        5.11068        0.29311
H          2.28016       -1.32918       -1.69380
H          6.55521        1.23778        1.68253
C         -1.62863       -0.71372        0.78712
C         -0.97603        2.32900        0.69323
H          6.63548        3.71099        1.84821
H         -2.21727       -0.01514        1.38455
H         -1.31809       -1.51398        1.46829
H         -2.29104       -1.14339        0.02822
H         -1.15431        3.11285       -0.05159
H         -0.46636        2.77726        1.55262
H         -1.96089        1.99654        1.02645











