$molecule
-2 1
C                 -0.3928060000      1.1227740000     -0.3445440000
C                 -1.4317680000      0.1339260000     -0.5592240000
C                 -1.2600400000     -1.2154510000     -0.3567180000
C                 -0.0306030000     -1.8041760000      0.1124840000
C                  1.0075380000     -0.8685700000      0.3687190000
C                  0.8476850000      0.5573400000      0.1881330000
O                 -0.6306080000      2.3581630000     -0.5568120000
O                  0.0985550000     -3.0953980000      0.2411780000
C                  1.8755250000      1.4843380000      0.6558190000
C                  2.5288810000      1.2095250000      2.0338880000
O                  2.2265930000      2.5402580000      0.1086980000
H                 -2.3813780000      0.5253300000     -0.9258120000
H                 -2.0748200000     -1.9105070000     -0.5692600000
H                  2.1249110000      0.3378150000      2.5482620000
H                  2.3483630000      2.1053670000      2.6398960000
H                  3.6176260000      1.0985380000      1.9343760000
C                  2.3534740000     -1.4891420000      0.6721200000
H                  2.4148930000     -2.4463430000      0.1403610000
H                  2.5038410000     -1.7393270000      1.7386790000
H                  3.1875280000     -0.8462210000      0.3688370000
$end

$rem
   BASIS  =  6-311++G(d,p)
   GUI  =  2
   JOB_TYPE  =  SP
   METHOD  =  B3LYP
   SCF_CONVERGENCE  = 8
   SOLVENT_METHOD = sm12
$end

$smx
   solvent dimethylformamide
   charges CM5
$end





