$molecule
-1 2
O                 -2.7026600000     -0.1858320000      0.4473600000
C                 -1.3669860000     -0.0281180000      0.2342650000
C                 -0.7430520000      1.1934070000      0.2743820000
C                  0.6638330000      1.2807260000      0.0403170000
O                  1.3604770000      2.3479550000      0.0489560000
C                  1.3670170000      0.0280460000     -0.2343010000
C                  0.7431280000     -1.1934440000     -0.2743020000
C                 -0.6638430000     -1.2807160000     -0.0404410000
O                 -1.3603870000     -2.3480550000     -0.0493490000
O                  2.7026770000      0.1859680000     -0.4473020000
H                 -2.8058790000     -1.1593370000      0.3472020000
H                 -1.2989630000      2.1010280000      0.4814670000
H                  1.2989100000     -2.1011260000     -0.4814420000
H                  2.8057280000      1.1594990000     -0.3468120000
$end
$rem
   MAX_SCF_CYCLES=200
   BASIS  =  6-311++G(d,p)
   GUI  =  2
   JOB_TYPE  =  SP
   METHOD  =  B3LYP
   SOLVENT_METHOD = PCM
$end
$pcm
   theory = CPCM
$end
$solvent
   dielectric 37.219
   opticaldielectric 1.43
$end





