%chk=284-rad.chk
%nproc=8
%mem=30GB
#P UB3LYP/6-311++G(d,p) nosym  opt freq

Radical

-1 2
C                 -0.1645940000      3.9763270000      0.0682200000
C                 -1.2287790000      3.4645400000      0.7866310000
C                 -1.2939150000      2.0834710000      1.0649710000
C                  0.8669430000      3.1302930000     -0.3952080000
C                  0.8031990000      1.7372060000     -0.1154210000
C                 -0.2896250000      1.2409640000      0.6171600000
C                  1.9816130000      3.6568010000     -1.1462010000
C                  2.9987040000      2.7193950000     -1.5845880000
C                  2.9704010000      1.3620920000     -1.3317620000
C                  1.8563380000      0.8117970000     -0.5771430000
O                  2.1393900000      4.8851810000     -1.4531450000
O                  1.7851460000     -0.4181210000     -0.3217620000
H                 -0.0919520000      5.0340530000     -0.1583050000
H                 -2.0158510000      4.1257680000      1.1377980000
H                 -2.1305340000      1.6827840000      1.6295540000
H                 -0.3138970000      0.1755870000      0.8164910000
O                  3.9957990000      3.3385400000     -2.2819620000
C                  4.0040340000      0.3405680000     -1.7636660000
C                  5.2247930000      0.7944450000     -2.5725570000
C                  6.1495210000     -0.3812720000     -2.9127250000
C                  7.3871500000      0.0237150000     -3.7216070000
C                  8.3161830000     -1.1463820000     -4.0643720000
C                  9.5500470000     -0.7302710000     -4.8721340000
H                  3.6905780000      4.2758040000     -2.2643710000
H                  3.4748570000     -0.4424200000     -2.3234820000
H                  4.3476800000     -0.1790730000     -0.8587570000
H                  5.7869840000      1.5508930000     -2.0168400000
H                  4.9049520000      1.2855300000     -3.4965720000
H                  5.5848130000     -1.1387830000     -3.4734810000
H                  6.4710090000     -0.8724960000     -1.9840990000
H                  7.9529250000      0.7807680000     -3.1619050000
H                  7.0675000000      0.5138900000     -4.6508140000
H                  7.7520740000     -1.9024740000     -4.6247890000
H                  8.6368970000     -1.6359870000     -3.1359750000
H                  9.2617380000     -0.2681970000     -5.8222990000
H                 10.1922340000     -1.5870700000     -5.1002890000
H                 10.1528450000      0.0002830000     -4.3225950000





