%chk=324.chk
%nproc=8
%mem=30GB
#P UB3LYP/6-311++G(d,p) nosym opt freq

Oxidized

0 1
C         -1.81513        2.82630       -0.74202
C         -2.92390        2.01196       -0.53081
C         -2.74892        0.67540       -0.18908
C         -0.51354        2.30858       -0.61271
C         -0.31601        0.94338       -0.26371
C         -1.46507        0.14233       -0.05580
C          0.65251        3.18797       -0.84081
C          1.99874        2.62423       -0.70003
C          2.15472        1.20611       -0.33746
C          1.09086        0.38822       -0.12525
O          0.50838        4.36447       -1.14159
O          2.98569        3.32104       -0.88096
H         -1.97583        3.86392       -1.00727
H         -3.92198        2.41845       -0.63242
H         -3.61429        0.04563       -0.02575
H         -1.41148       -0.89827        0.21041
H          3.17174        0.84256       -0.24706
N          1.31192       -0.99163        0.22741
C          2.63479       -1.57919        0.37291
C          2.54762       -3.05609        0.75143
H          0.51201       -1.61270        0.38933
H          3.19383       -1.04418        1.17088
H          3.18708       -1.49452       -0.58799
H          2.01329       -3.17231        1.71837
H          3.57025       -3.47627        0.85491
H          2.00623       -3.62171       -0.03658





