%chk=269.chk
%nproc=8
%mem=30GB
#P UB3LYP/6-311++G(d,p) nosym opt freq

Oxidized

0 1
N                 -3.3007170000     -0.9427580000      0.2271520000
C                 -2.1195960000     -0.2855610000      0.2148790000
C                 -1.9410070000      1.0394140000      0.4774360000
C                 -0.6367000000      1.6752430000      0.4446460000
O                 -0.4915310000      2.8698210000      0.6836420000
C                  0.5514200000      0.8181800000      0.1046370000
C                  1.8230430000      1.3866420000      0.0614960000
C                  2.9296360000      0.6007920000     -0.2525770000
C                  2.7737370000     -0.7598170000     -0.5260240000
C                  1.5088460000     -1.3361900000     -0.4854280000
C                  0.3951900000     -0.5510020000     -0.1705950000
C                 -0.9471590000     -1.1716910000     -0.1294510000
O                 -1.1441430000     -2.3544140000     -0.3590860000
H                 -4.1658740000     -0.4781600000      0.4411920000
H                 -3.2970290000     -1.9291660000      0.0142270000
H                 -2.7782240000      1.6830750000      0.7255310000
H                  1.9222870000      2.4434570000      0.2767310000
H                  3.9165550000      1.0486300000     -0.2846400000
H                  3.6375800000     -1.3674010000     -0.7699400000
H                  1.3636860000     -2.3890940000     -0.6938270000


