%chk=001-an.chk
%nproc=8
%mem=30GB
#P UB3LYP/6-311++G(d,p) nosym opt freq

Reduced

-2 1
O    -1.0716867292    1.7048758185   -1.8236561736
C    -0.8288599977    0.8206762499   -0.9601341259
C    -1.8864930195   -0.0453040999   -0.4607287400
C    -1.6142981629   -0.9675595046    0.4450178994
C    -0.2537908695   -1.1085264455    0.9360496593
O     0.0488943721   -1.9768501804    1.8012362388
C     0.8328570601   -0.2601684381    0.4603188373
C     0.5249470172    0.6620119871   -0.4549058085
C     1.6176506409    1.4854070460   -0.9064212951
N     2.4956888521    2.1592974136   -1.2905740633
C     2.1743949675   -0.3983626506    0.9437675688
N     3.2706995094   -0.5223151188    1.3213911045
H    -2.9223264003    0.0707332315   -0.8424400320
H    -2.3876772403   -1.6239153087    0.8310789303


