$molecule
0 1
C                  0.8174400000      1.6355810000     -0.6761270000
C                 -0.5576680000      1.0000910000     -0.6270030000
C                 -0.6815080000     -0.2292040000     -0.0582670000
C                  0.5803750000     -0.9729120000      0.3313930000
C                  1.9326100000     -0.3522460000      0.2239470000
C                  2.0437040000      0.9090360000     -0.2360000000
C                  3.3199860000      1.6900330000     -0.3727390000
C                  3.0653570000     -1.2320520000      0.6714690000
O                  0.9459630000      2.7837040000     -1.0790330000
O                  0.5095100000     -2.1232830000      0.7420690000
H                  4.1812850000      1.1502600000      0.0137120000
H                  3.2354880000      2.6433500000      0.1544150000
H                  3.5037570000      1.9410690000     -1.4212790000
H                  3.0402020000     -2.1812090000      0.1308240000
H                  2.9570920000     -1.4855260000      1.7299030000
H                  4.0370450000     -0.7677020000      0.5207410000
C                 -1.9277550000     -1.0642220000      0.2406050000
C                 -3.1152720000     -0.3426290000      0.8962010000
C                 -2.3478730000     -1.9463340000     -0.9558600000
C                 -1.6160770000      1.9296200000     -1.2233250000
C                 -2.2553490000      2.8535660000     -0.1632570000
C                 -2.6508200000      1.2992740000     -2.1681870000
H                 -1.5780610000     -1.7747860000      0.9906410000
H                 -3.8141830000     -1.0956870000      1.2726060000
H                 -3.6725680000      0.3039650000      0.2209690000
H                 -2.7894030000      0.2570320000      1.7499490000
H                 -3.1380320000     -2.6348670000     -0.6416100000
H                 -1.5056970000     -2.5482860000     -1.3043720000
H                 -2.7232280000     -1.3638580000     -1.7969920000
H                 -1.0313720000      2.6030350000     -1.8512910000
H                 -2.8809320000      3.6008940000     -0.6605810000
H                 -1.4843720000      3.3885790000      0.3957010000
H                 -2.8786970000      2.3112160000      0.5473220000
H                 -3.1689850000      2.1022660000     -2.7010830000
H                 -3.4110760000      0.7048730000     -1.6648810000
H                 -2.1667580000      0.6682790000     -2.9180090000
$end
$rem
   MAX_SCF_CYCLES=200
   BASIS  =  6-311++G(d,p)
   GUI  =  2
   JOB_TYPE  =  SP
   METHOD  =  B3LYP
   SOLVENT_METHOD = COSMO
$end
$solvent
   dielectric 37.219
   opticaldielectric 1.43
$end





