%chk=340-rad.chk
%nproc=8
%mem=30GB
#P UB3LYP/6-311++G(d,p) nosym opt freq

Radical

-1 2
O     2.3457774357    2.7360021652   -0.2070425490
C     2.3680269801    1.3838650933   -0.1684690803
C     3.6386180246    0.7848865276   -0.2215495090
C     3.7044207095   -0.5838510350   -0.1849109015
C     2.5941456231   -1.3735025661   -0.0998651820
C     1.3121814194   -0.7706387954   -0.0462701274
C     0.1475998505   -1.6606489757    0.0447541689
C    -1.1536608805   -0.9785841321    0.0970879733
C    -2.3211693744   -1.7808004642    0.1856830420
C    -3.5548639566   -1.2053427683    0.2373965039
C    -3.7337475013    0.1506154300    0.2074238430
C    -2.5817638799    0.9493326670    0.1197954713
O    -2.7570294483    2.2850359442    0.0902191515
C    -1.3270226740    0.3834730420    0.0666294064
C    -0.1057904639    1.1839852660   -0.0249058814
O    -0.2164508950    2.4202607240   -0.0551486316
C     1.2312862419    0.5970185832   -0.0820365805
H     1.6494868368    3.4006045238   -0.1878566042
H     4.5542563463    1.3426376948   -0.2889301799
H     4.6945226166   -1.0797590973   -0.2254147896
H     2.6785042022   -2.4314437785   -0.0734081955
H     0.2548622665   -2.3534273335    0.9151055472
H     0.1394736374   -2.2798232978   -0.9022671046
H    -2.1569178924   -2.8600202467    0.2083206153
H    -4.3995267246   -1.9084387956    0.3051099735
H    -4.7284003267    0.5467688453    0.2511087095
H    -2.2768181732    3.1017947797    0.0394409106


