%chk=086-an.chk
%nproc=8
%mem=30GB
#P UB3LYP/6-311++G(d,p) nosym opt freq SCF=YQC

Reduced

-2 1
C     2.6577997291    1.5496572578    0.0375223765
O     2.5153763847    0.1558718098   -0.1491827273
C     1.3190187567   -0.4848935409   -0.0144001235
C     1.2504885875   -1.7951542365   -0.2523910030
C    -0.0274266240   -2.4834959066   -0.1091717180
O    -0.1113280869   -3.7189703762   -0.3294060000
C    -1.2247450169   -1.7660669380    0.2878594688
C    -1.1290483038   -0.4713414447    0.5169825221
O    -2.2592690724    0.2599608241    0.9021959061
C    -2.7179950171    1.2601476509    0.0208630941
C     0.1212899847    0.2304059911    0.3823060893
O     0.1601567468    1.4668884631    0.6124670730
H     3.7066063005    1.8728923115   -0.1174026345
H     2.0066637662    2.1268993342   -0.6572544585
H     2.4125403243    1.8601567235    1.0904536685
H     2.1366359083   -2.3393210747   -0.5487823680
H    -2.1998072329   -2.2380344061    0.4074177447
H    -2.9832609475    0.7893191422   -0.9577956909
H    -3.6707573450    1.6776670374    0.4186329442
H    -1.9629388424    2.0474113780   -0.1750122618


