%chk=246-rad.chk
%nproc=8
%mem=30GB
#P UB3LYP/6-311++G(d,p) nosym  opt freq

Radical

-1 2
C                 -2.7921580000     -0.8831600000     -0.9658580000
C                 -1.4455880000     -0.4094010000     -0.4688130000
C                 -0.2969290000     -1.1223250000     -0.7740360000
C                  0.9789480000     -0.7228050000     -0.3353340000
C                  2.1655820000     -1.5245180000     -0.6931570000
O                  2.0759460000     -2.5728030000     -1.3899550000
C                  3.4161230000     -1.0239550000     -0.1919170000
C                  3.5235360000      0.1207010000      0.5702780000
C                  2.3959860000      0.9308210000      0.9417930000
O                  2.5029050000      1.9768590000      1.6395210000
C                  1.0893450000      0.4536270000      0.4480410000
C                 -0.0816590000      1.1715730000      0.7534230000
C                 -1.3347810000      0.7712300000      0.3172750000
C                 -2.5609630000      1.5799070000      0.6740210000
H                 -2.6859230000     -1.8009680000     -1.5485470000
H                 -3.4852470000     -1.0895400000     -0.1407360000
H                 -3.2801370000     -0.1364260000     -1.6046740000
H                 -0.3506360000     -2.0267540000     -1.3718370000
H                  4.3001980000     -1.6026650000     -0.4463380000
H                  4.4935810000      0.4580490000      0.9258380000
H                  0.0336100000      2.0679400000      1.3546700000
H                 -3.2896380000      0.9910030000      1.2450100000
H                 -2.2870760000      2.4472500000      1.2788830000
H                 -3.0850270000      1.9463590000     -0.2175500000


