%chk=315-rad.chk
%nproc=8
%mem=30GB
#P UB3LYP/6-311++G(d,p) nosym  opt freq

Radical

-2 2
C                 -5.0388390000     -0.0926750000     -3.9541790000
C                 -4.4825310000     -0.0676890000     -5.2224430000
C                 -3.0803920000      0.0019530000     -5.3709270000
C                 -4.2364240000     -0.0500080000     -2.7970440000
C                 -2.8231950000      0.0201370000     -2.9486880000
C                 -2.2733200000      0.0447060000     -4.2476640000
C                 -4.8947540000     -0.0798750000     -1.4653280000
C                 -3.9840750000     -0.0314800000     -0.3318230000
C                 -2.6180260000      0.0359890000     -0.4998320000
C                 -1.9482200000      0.0664320000     -1.7719100000
O                 -6.1408170000     -0.1434790000     -1.3876050000
O                 -0.6857430000      0.1284940000     -1.8852250000
S                 -4.6256220000     -0.0593320000      1.3971750000
O                 -5.4828230000      1.1499840000      1.5373050000
O                 -5.3547340000     -1.3492450000      1.5443750000
O                 -3.3973120000      0.0060460000      2.2490440000
H                 -6.1121740000     -0.1459510000     -3.8054720000
H                 -5.1227910000     -0.1015270000     -6.1010880000
H                 -2.6376800000      0.0218770000     -6.3644810000
H                 -1.1922960000      0.0984370000     -4.3256230000
H                 -1.9961420000      0.0691750000      0.3873840000


