%chk=317-an.chk
%nproc=8
%mem=30GB
#P UB3LYP/6-311++G(d,p) nosym opt freq

Reduced

-2 1
Cl                 3.1253660000      0.3956900000     -0.0199150000
C                  1.3559770000      0.1695240000      0.0015880000
C                  0.7925560000     -1.1314060000     -0.0610570000
Cl                 1.8906620000     -2.5484720000     -0.1255010000
C                 -0.6035470000     -1.4211030000     -0.0626750000
O                 -1.0809900000     -2.5872370000     -0.1073090000
C                 -1.5297420000     -0.2171060000      0.0003090000
O                 -2.7804450000     -0.3783150000      0.0081300000
C                 -0.8907010000      1.0564170000      0.0532600000
C                  0.5129400000      1.2652260000      0.0588300000
Cl                 1.1862570000      2.9164460000      0.1114270000
Cl                -1.9783350000      2.4807340000      0.1369160000





