%chk=061-rad-PCM.chk
%nproc=8
%mem=30GB
#P UB3LYP/6-311++G(d,p) SCRF=(PCM,Solvent=n,n-DiMethylFormamide)

Radical PCM in DMF 

-1 2
C                  0.0947190000     -0.6311830000      2.1770150000
C                 -0.4043370000     -1.1279270000      0.9079570000
C                 -0.2272290000     -0.4390520000     -0.2551190000
C                  0.4550690000      0.8416690000     -0.3264760000
C                  0.9393480000      1.3671320000      0.9472030000
C                  0.7869120000      0.6326630000      2.1109320000
O                 -0.0653170000     -1.2632360000      3.2601070000
O                  0.6334980000      1.4162770000     -1.4364310000
H                 -0.9226470000     -2.0829020000      0.9252280000
H                 -0.5883560000     -0.8292780000     -1.2026470000
C                  1.6746260000      2.6671690000      1.0779230000
C                  1.1781420000      3.9860350000      0.4081000000
C                 -0.3255380000      3.9709530000      0.0801550000
C                  1.4605210000      5.1421130000      1.3905380000
C                  2.0029360000      4.2078370000     -0.8802410000
O                  2.6658550000      2.7277730000      1.7931670000
H                 -0.5570520000      3.2308590000     -0.6842270000
H                 -0.6254980000      4.9573860000     -0.2930050000
H                 -0.9227240000      3.7564340000      0.9719550000
H                  0.8833510000      5.0270880000      2.3138180000
H                  1.1752540000      6.0935720000      0.9285660000
H                  2.5165140000      5.1803710000      1.6594940000
H                  1.8284420000      3.3938190000     -1.5846700000
H                  3.0702470000      4.2593450000     -0.6448340000
H                  1.7088190000      5.1559810000     -1.3466280000
H                  1.1900650000      1.0177200000      3.0414590000





