$molecule
-2 1
C                 -0.9438970000      3.9878550000     -0.1320550000
C                 -2.1938430000      3.4058100000     -0.2194740000
C                 -2.3142080000      1.9883260000     -0.2226230000
C                  0.2464100000      3.2187530000     -0.0430600000
C                  0.1227980000      1.7698780000     -0.0559140000
C                 -1.1715530000      1.2100200000     -0.1449490000
C                  1.5249630000      3.8705770000      0.0250310000
C                  2.6407120000      2.9925410000      0.1057540000
C                  2.5116850000      1.5869230000      0.1347030000
C                  1.2793500000      0.8902060000      0.0190860000
O                  1.6982930000      5.1691360000     -0.0041330000
O                  1.1991660000     -0.3974860000     -0.0122820000
N                  3.9151310000      3.6411500000      0.1875110000
S                  3.9662990000      0.5178770000      0.2880870000
H                 -0.8235440000      5.0674310000     -0.1283210000
H                 -3.0851600000      4.0295760000     -0.2837840000
H                 -3.2958620000      1.5210620000     -0.2897280000
H                 -1.2266220000      0.1249820000     -0.1507750000
H                  3.6812960000      4.6350870000      0.0857170000
H                  4.5192590000      3.3611730000     -0.5842590000
H                  4.7744780000      1.4962850000      0.7590480000
$end

$rem
   BASIS  =  6-311++G(d,p)
   GUI  =  2
   JOB_TYPE  =  SP
   METHOD  =  B3LYP
   SCF_CONVERGENCE  = 8
   SOLVENT_METHOD = sm12
$end

$smx
   solvent dimethylformamide
   charges CM5
$end





