%chk=090-rad.chk
%nproc=8
%mem=30GB
#P UB3LYP/6-311++G(d,p) nosym  opt freq

Radical

-1 2
C   -1.9447818    0.2076270    0.6097522
  C   -2.8517834    1.1502832    0.1947243
  C   -2.5338874    2.6257905    0.0509591
  C   -4.2506589    0.7242163   -0.1477322
  O   -5.0535647    1.5666164   -0.5176450
  C   -4.6800699   -0.7078391   -0.0450412
  C   -3.7773379   -1.6328005    0.3658976
  O   -4.0491392   -2.9676817    0.5003820
  C   -5.2292175   -3.6438633    0.2692682
  C   -2.3970840   -1.2169818    0.7016857
  O   -1.6098880   -2.0793438    1.0672335
  O   -5.9478002   -1.1096971   -0.3516521
  C   -7.0049239   -0.3397098   -0.7870639
  H   -3.4002103    3.2228996   -0.2968985
  H   -1.7509290    2.7805072   -0.7143452
  H   -2.2558786    3.0618056    1.0280707
  H   -5.5282682   -3.5474439   -0.7959042
  H   -5.0738597   -4.7202499    0.4872797
  H   -6.0285990   -3.2676380    0.9422809
  H   -7.2680360    0.4224460   -0.0234305
  H   -7.8865097   -0.9952716   -0.9398539
  H   -6.7583362    0.1410971   -1.7573121
  C   -0.4690720    0.4075045    1.0114787
  C    0.1969346    1.7910493    1.0118553
  C    1.6649758    1.6890222    1.4523155
  C    2.3316623    3.0702798    1.4685910
  C    3.8005778    2.9695010    1.8965549
  C    4.4605552    4.3533048    1.9217465
  C    5.9326165    4.2553036    2.3393265
  C    6.5877115    5.6413139    2.3706543
  C    8.0613464    5.5445565    2.7816005
  C    8.7144714    6.9232404    2.8174385
  H    0.1336010   -0.2379637    0.3346812
  H   -0.3677578    0.0116408    2.0464345
  H   -0.3211300    2.4551589    1.7316084
  H    0.1894250    2.2160082   -0.0105621
  H    2.2145163    1.0247680    0.7490040
  H    1.7158999    1.2485298    2.4727222
  H    1.7864586    3.7308430    2.1785775
  H    2.2775069    3.5170043    0.4511898
  H    4.3458565    2.3144989    1.1815276
  H    3.8584691    2.5176675    2.9114888
  H    3.9169639    5.0045335    2.6415488
  H    4.3974513    4.8090511    0.9088601
  H    6.4761020    3.6080284    1.6159097
  H    5.9985457    3.7958487    3.3503476
  H    6.0455842    6.2863366    3.0971571
  H    6.5187521    6.1033896    1.3609898
  H    8.6103809    4.9061462    2.0553714
  H    8.1390303    5.0847583    3.7909865
  H    8.6694878    7.3982976    1.8142384
  H    9.7792512    6.8232829    3.1160584
  H    8.1984387    7.5757188    3.5537356









