%chk=098-rad.chk
%nproc=8
%mem=30GB
#P UB3LYP/6-311++G(d,p) nosym  opt freq

Radical

-1 2
C          1.26431        4.22869        5.13650
C          1.72657        4.05603        3.74540
C          1.58380        2.89638        3.09022
C          0.94302        1.73976        3.74559
C          0.38595        1.94707        5.09576
C          0.51900        3.10910        5.74965
O          1.53310        5.26621        5.72719
O          0.88171        0.63108        3.23239
H          2.18809        4.93043        3.29738
C         -0.10430        3.18559        7.08578
O         -0.22811        2.22249        7.82911
O         -0.58242        4.43007        7.31621
C         -1.21527        4.59137        8.58628
H         -1.55712        5.62699        8.66555
H         -0.50415        4.39728        9.39533
H         -2.08510        3.93195        8.66746
C          2.02979        2.81692        1.68690
O          3.28135        3.33432        1.57088
O          1.35149        2.37093        0.77653
C          3.80620        3.28057        0.24258
H         -0.13533        1.09328        5.51951
H          4.82359        3.68072        0.26440
H          3.20401        3.89901       -0.43023
H          3.84858        2.24630       -0.11335









