%chk=020-an-PCM.chk
%nproc=8
%mem=30GB
#P UB3LYP/6-311++G(d,p) SCRF=(PCM,Solvent=n,n-DiMethylFormamide)

Reduced 

-2 1
C                 -2.0407750000      0.3599920000      1.5683910000
C                 -2.8862200000      1.1780360000      0.7211270000
C                 -2.4739620000      1.4806080000     -0.5817300000
C                 -1.2699020000      1.0759750000     -1.2350390000
C                 -0.4245560000      0.2577570000     -0.3878480000
C                 -0.8367950000     -0.0447850000      0.9150230000
O                 -0.9447370000      1.3886510000     -2.4429970000
O                 -2.3660380000      0.0471320000      2.7762740000
Br                 0.3180900000     -1.1697280000      2.0893360000
Br                -3.6289550000      2.6053710000     -1.7561080000
C                  0.8916860000     -0.2334050000     -0.9805830000
C                  1.8319130000      0.9360250000     -1.3405870000
C                  0.6658610000     -1.1559880000     -2.1966950000
C                 -4.2025510000      1.6690540000      1.3137870000
C                 -3.9768960000      2.5914060000      2.5301070000
C                 -5.1428220000      0.4995480000      1.6734320000
H                  1.3945480000     -0.8267790000     -0.2153740000
H                  2.0713770000      1.5192560000     -0.4446330000
H                  1.3400560000      1.5880300000     -2.0659550000
H                  2.7762070000      0.5610230000     -1.7649730000
H                  0.0886700000     -2.0388070000     -1.9005180000
H                  1.6270520000     -1.5003630000     -2.6089060000
H                  0.1125960000     -0.6136200000     -2.9667160000
H                 -4.7053180000      2.2625700000      0.5486250000
H                 -4.9381440000      2.9356920000      2.9422580000
H                 -3.3996730000      3.4742880000      2.2341790000
H                 -3.4237330000      2.0488910000      3.3000970000
H                 -6.0871750000      0.8744650000      2.0977640000
H                 -4.6510590000     -0.1525990000      2.3987340000
H                 -5.3821660000     -0.0835040000      0.7773280000





