$molecule
-1 2
N                 -2.5760950000      0.5058950000      2.3186170000
C                 -2.4270760000      0.2785920000      0.9635040000
C                 -3.5557650000      0.1778940000      0.1453250000
C                 -3.4342790000     -0.1182270000     -1.2174540000
C                 -2.1908760000     -0.3219110000     -1.7842160000
C                 -1.0256090000     -0.2144360000     -1.0002590000
C                  0.2648720000     -0.4261800000     -1.6674460000
O                  0.3467160000     -0.7160120000     -2.8852340000
C                  1.4543080000     -0.2761960000     -0.8354590000
C                  2.7266690000     -0.4646160000     -1.4116970000
C                  3.8725270000     -0.3239140000     -0.6638310000
Cl                 5.4401870000     -0.5716300000     -1.4360790000
C                  3.7821750000      0.0170890000      0.7077960000
Cl                 5.2339360000      0.2043630000      1.6943450000
C                  2.5490730000      0.2059510000      1.2884550000
C                  1.3627830000      0.0640360000      0.5407150000
C                  0.0794430000      0.2730190000      1.2069280000
O                  0.0522800000      0.5980280000      2.4327670000
C                 -1.1191120000      0.1012710000      0.3938190000
H                 -1.7061140000      0.7433130000      2.7963830000
H                 -3.4281600000      0.9576190000      2.6100300000
H                 -4.5377770000      0.3155620000      0.5901480000
H                 -4.3300830000     -0.1935100000     -1.8271860000
H                 -2.0708800000     -0.5605470000     -2.8330880000
H                  2.7746260000     -0.7222290000     -2.4620990000
H                  2.4622300000      0.4667770000      2.3352180000
$end
$rem
   MAX_SCF_CYCLES=200
   BASIS  =  6-311++G(d,p)
   GUI  =  2
   JOB_TYPE  =  SP
   METHOD  =  B3LYP
   SOLVENT_METHOD = PCM
$end
$pcm
   theory = CPCM
$end
$solvent
   dielectric 37.219
   opticaldielectric 1.43
$end





