$molecule
-2 1
O                 -1.1366480000      1.7761080000     -1.9042420000
C                 -0.8080010000      0.9048890000     -1.0296560000
C                 -1.7955550000     -0.0047080000     -0.4712000000
C                 -1.5180000000     -0.9616000000      0.4659320000
C                 -0.1982340000     -1.1972670000      1.0291380000
O                 -0.0092320000     -2.1105940000      1.9020900000
C                  0.8086520000     -0.3193220000      0.5030180000
C                  0.5115400000      0.7050170000     -0.5002180000
C                  1.5396670000      1.5441300000     -0.9858920000
N                  2.3861590000      2.2389770000     -1.3895730000
C                  2.1254040000     -0.4751520000      0.9918400000
N                  3.2117490000     -0.6073470000      1.3976610000
H                 -2.8096010000      0.1182470000     -0.8514050000
H                 -2.3078990000     -1.6113780000      0.8425060000
$end

$rem
   BASIS  =  6-311++G(d,p)
   GUI  =  2
   JOB_TYPE  =  SP
   METHOD  =  B3LYP
   SCF_CONVERGENCE  = 8
   SOLVENT_METHOD = sm12
$end

$smx
   solvent dimethylformamide
   charges CM5
$end





