%chk=108-an.chk
%nproc=8
%mem=30GB
#P UB3LYP/6-311++G(d,p) nosym opt freq

Reduced

-2 1
  C   -1.7239517   -3.7335256    1.2192163
  C   -0.2725147   -3.9682272    1.0657727
  C    0.5367840   -2.9700225    0.6905696
  C   -0.0110751   -1.6216026    0.4252999
  C   -1.4752197   -1.3685907    0.5759245
  C   -2.2903122   -2.3809335    0.9556060
  O   -2.4499719   -4.6534742    1.5620822
  O    0.7461622   -0.7261912    0.0841275
  O   -3.6193357   -2.1609754    1.0948161
  C   -2.0475196    0.0032539    0.3082531
  H    0.1405392   -4.9541302    1.2578884
  H    1.6017135   -3.1528671    0.5807167
  H   -1.2640865    0.7286611    0.0068315
  H   -2.5403728    0.3898782    1.2253122
  H   -2.7958713   -0.0553407   -0.5102310
  H   -4.2346259   -2.8570294    1.3639436










