$molecule
0 1
C                 -0.1465940000      0.8399540000     -0.2447510000
C                 -1.2478010000      0.0161100000     -0.8496520000
C                 -1.5026350000     -1.2137500000     -0.3696200000
C                 -0.7345190000     -1.7974590000      0.7459960000
C                  0.3557080000     -0.9778100000      1.3303510000
C                  0.6598340000      0.2471660000      0.8671170000
O                  0.0524820000      1.9737570000     -0.6483740000
O                 -0.9769720000     -2.9129290000      1.1792500000
C                  1.8213080000      0.9888150000      1.5119060000
C                  2.6432220000      1.9453160000      0.6856020000
O                  2.0850560000      0.7538920000      2.6722770000
H                  2.0678640000      2.8529110000      0.4906980000
H                  2.8854550000      1.5173390000     -0.2909240000
H                  3.5537390000      2.1861930000      1.2328780000
H                  0.9085400000     -1.4159990000      2.1541160000
C                 -2.0152580000      0.6477020000     -1.9704850000
H                 -2.2924260000     -1.8370660000     -0.7758750000
H                 -2.4778970000      1.5818990000     -1.6409530000
H                 -2.7904720000     -0.0244910000     -2.3392910000
H                 -1.3474860000      0.9111100000     -2.7952940000
$end
$rem
   MAX_SCF_CYCLES=200
   BASIS  =  6-311++G(d,p)
   GUI  =  2
   JOB_TYPE  =  SP
   METHOD  =  B3LYP
   SOLVENT_METHOD = COSMO
$end
$solvent
   dielectric 37.219
   opticaldielectric 1.43
$end





