$molecule
-1 2
O                 -0.1129530000     -2.4628750000      0.6096430000
C                 -0.0472750000     -1.2134190000      0.3933210000
C                 -1.2719410000     -0.4167170000      0.3178200000
C                 -2.5213880000     -1.0894830000      0.3765690000
C                 -3.7279020000     -0.4111590000      0.2799570000
C                 -3.7504690000      0.9762410000      0.1026410000
C                 -2.5324340000      1.6679950000      0.0340670000
C                 -1.3225560000      0.9917890000      0.1562190000
S                  0.1544320000      1.9890840000      0.2103560000
C                  1.4504870000      0.8029220000     -0.0930710000
C                  2.6992610000      1.3116120000     -0.4362260000
C                  3.8057940000      0.4615120000     -0.5768320000
C                  3.6285840000     -0.9122890000     -0.3817880000
C                  2.3782670000     -1.4232570000     -0.0642700000
C                  1.2403600000     -0.5878950000      0.0918500000
H                 -2.4831040000     -2.1642240000      0.5053360000
H                 -4.6610990000     -0.9650160000      0.3370160000
H                 -4.6884240000      1.5150370000      0.0191900000
H                 -2.5272330000      2.7451360000     -0.1054370000
H                  2.8144060000      2.3812890000     -0.5854750000
H                  4.7778430000      0.8702460000     -0.8319670000
H                  4.4738840000     -1.5873480000     -0.4848440000
H                  2.2192600000     -2.4845830000      0.0821250000
$end

$rem
   BASIS  =  6-311++G(d,p)
   GUI  =  2
   JOB_TYPE  =  SP
   METHOD  =  B3LYP
   SCF_CONVERGENCE  = 8
   SOLVENT_METHOD = sm12
$end

$smx
   solvent dimethylformamide
   charges CM5
$end





