$molecule
0 1
C                  0.0496400000      1.7013130000     -0.0000480000
C                 -1.2177320000      0.9082910000     -0.0007990000
C                 -1.2060420000     -0.4436970000      0.0001900000
C                  0.0748570000     -1.2146860000      0.0020100000
C                  1.3547220000     -0.4230690000      0.0029190000
C                  1.3430030000      0.9319450000      0.0019110000
O                  0.0573660000      2.9080610000     -0.0011130000
O                  0.1034410000     -2.4211220000      0.0028840000
C                  2.5365310000      1.7083180000      0.0026430000
C                  2.5615010000     -1.1786810000      0.0048270000
N                  3.5049420000      2.3367040000      0.0032490000
N                  3.5406450000     -1.7902070000      0.0063830000
Cl                -2.6644430000      1.8333760000     -0.0029780000
Cl                -2.6365430000     -1.3936580000     -0.0005890000
$end
$rem
   MAX_SCF_CYCLES=200
   BASIS  =  6-311++G(d,p)
   GUI  =  2
   JOB_TYPE  =  SP
   METHOD  =  B3LYP
   SOLVENT_METHOD = PCM
$end
$pcm
   theory = CPCM
$end
$solvent
   dielectric 37.219
   opticaldielectric 1.43
$end





