%chk=340-PCM.chk
%nproc=8
%mem=30GB
#P UB3LYP/6-311++G(d,p) SCRF=(PCM,Solvent=n,n-DiMethylFormamide)

Quinone PCM in DMF 

0 1
O                  2.3178330000      2.7701050000     -0.2108380000
C                  2.3781960000      1.4318670000     -0.1646290000
C                  3.6436330000      0.8381990000     -0.1447170000
C                  3.7567710000     -0.5419660000     -0.0946200000
C                  2.6232880000     -1.3580800000     -0.0670410000
C                  1.3547050000     -0.7915900000     -0.0876170000
C                  0.1421420000     -1.6861160000     -0.1032030000
C                 -1.1974380000     -1.0158420000      0.0610790000
C                 -2.3373050000     -1.7939420000      0.2219420000
C                 -3.5908850000     -1.1875630000      0.3334280000
C                 -3.7258680000      0.1906780000      0.2846430000
C                 -2.5937230000      0.9950090000      0.1250690000
O                 -2.7726280000      2.3228400000      0.0857520000
C                 -1.3069690000      0.3915530000      0.0146420000
C                 -0.1143640000      1.2269010000     -0.1126870000
O                 -0.2285180000      2.4808900000     -0.1808430000
C                  1.2118780000      0.6128650000     -0.1321120000
H                  1.3645430000      3.0208170000     -0.2186750000
H                  4.5143070000      1.4814880000     -0.1675950000
H                  4.7422830000     -0.9943160000     -0.0763330000
H                  2.7315980000     -2.4364160000     -0.0310110000
H                  0.2547570000     -2.4585290000      0.6647760000
H                  0.1341290000     -2.2284630000     -1.0585260000
H                 -2.2517000000     -2.8742770000      0.2592660000
H                 -4.4740110000     -1.8041020000      0.4605490000
H                 -4.6918340000      0.6725990000      0.3687820000
H                 -1.8848220000      2.7353890000     -0.0294780000





