$molecule
0 1
C                  5.7669820000     -5.3002400000      1.2623960000
C                  6.7059600000     -5.1493690000      0.2334160000
C                  6.5885180000     -4.1631320000     -0.7403670000
C                  4.6693600000     -4.4060290000      1.2906920000
C                  4.5572550000     -3.4069450000      0.2979590000
C                  5.5109000000     -3.2873830000     -0.7100130000
C                  3.6199490000     -4.4911220000      2.3485350000
C                  2.4795820000     -3.5134170000      2.3239000000
C                  2.4068940000     -2.5764870000      1.3634200000
C                  3.4118450000     -2.4458840000      0.2966520000
O                  3.6494230000     -5.3277270000      3.2393210000
O                  3.3030670000     -1.5770520000     -0.5563120000
C                  5.9885260000     -6.4026400000      2.2681280000
H                  7.5508440000     -5.8288610000      0.2018440000
C                  1.4609280000     -3.6539220000      3.4137940000
H                  1.5929850000     -1.8594380000      1.3250020000
H                  5.3874360000     -2.5080460000     -1.4513310000
H                  7.3376660000     -4.0806310000     -1.5197670000
H                  6.9030590000     -6.9469730000      2.0243530000
H                  5.1533830000     -7.1054810000      2.2865750000
H                  6.0705760000     -6.0112170000      3.2839270000
H                  1.0113790000     -4.6503690000      3.3939290000
H                  0.6756700000     -2.9039530000      3.3128870000
H                  1.9314510000     -3.5522680000      4.3954580000
$end

$rem
   BASIS  =  6-311++G(d,p)
   GUI  =  2
   JOB_TYPE  =  SP
   METHOD  =  B3LYP
   SCF_CONVERGENCE  = 8
   SOLVENT_METHOD = sm12
$end

$smx
   solvent dimethylformamide
   charges CM5
$end





