$molecule
0 1
C                  4.8975170000     -2.9383040000     -0.3196230000
C                  5.6598390000     -2.0708940000     -1.0877620000
C                  5.1258520000     -0.8668580000     -1.5321180000
C                  3.5853520000     -2.5960030000      0.0072350000
C                  3.0091740000     -1.3801170000     -0.4270480000
C                  3.8090350000     -0.5042640000     -1.2143820000
C                  2.8165550000     -3.5663070000      0.8334940000
C                  1.4450440000     -3.2452880000      1.1949150000
C                  0.8570880000     -2.0218840000      0.7611630000
C                  1.6091880000     -1.0560860000     -0.0558370000
C                  0.7034960000     -4.1511180000      1.9755250000
C                 -0.6273790000     -3.8341860000      2.3232740000
C                 -0.4704430000     -1.7308460000      1.1215860000
C                 -1.1960690000     -2.6565860000      1.9067660000
O                  3.3509420000     -4.6271520000      1.1997670000
O                  1.0625510000     -0.0014710000     -0.4138620000
O                  1.2008610000     -5.3145670000      2.4121630000
H                  5.2922780000     -3.8799060000      0.0367430000
H                  6.6806870000     -2.3272610000     -1.3475000000
H                  5.7383470000     -0.2066120000     -2.1293980000
O                  3.2632110000      0.6536440000     -1.6290280000
H                  2.1314270000     -5.3702010000      2.0790810000
O                 -1.1023720000     -0.6079380000      0.7594050000
H                 -2.2167330000     -2.4043050000      2.1684260000
H                 -1.1814300000     -4.5446310000      2.9247600000
H                 -0.4510870000     -0.0859820000      0.2220490000
C                  4.0329620000      1.5556340000     -2.4181840000
H                  3.3720590000      2.3969640000     -2.6160080000
H                  4.3353750000      1.0995970000     -3.3662440000
H                  4.9169300000      1.9067590000     -1.8763760000
$end

$rem
   BASIS  =  6-311++G(d,p)
   GUI  =  2
   JOB_TYPE  =  SP
   METHOD  =  B3LYP
   SCF_CONVERGENCE  = 8
   SOLVENT_METHOD = sm12
$end

$smx
   solvent dimethylformamide
   charges CM5
$end





