$molecule
-2 1
C                  5.5661100000     -4.6083660000     -1.0144630000
C                  6.4662060000     -4.1044300000     -1.9698420000
C                  6.1640090000     -2.8146690000     -2.5734480000
C                  4.3843180000     -3.9520660000     -0.5846090000
C                  4.1207280000     -2.6411600000     -1.2282930000
C                  5.0103570000     -2.1414350000     -2.1747300000
C                  3.4539560000     -4.4767960000      0.4111320000
C                  2.3018370000     -3.6295270000      0.6886670000
C                  2.0574020000     -2.3577640000      0.0542930000
C                  2.9565030000     -1.8140760000     -0.9288390000
C                  1.3567880000     -4.0835000000      1.6454890000
C                  0.2343200000     -3.3550500000      1.9778040000
C                 -0.0031760000     -2.0990430000      1.3497110000
C                  0.8936340000     -1.6285260000      0.4161320000
C                  7.6737850000     -4.7521990000     -2.3940530000
C                  8.5005980000     -4.2019730000     -3.3393800000
C                  8.1874820000     -2.9446000000     -3.9455410000
C                  7.0477650000     -2.2853270000     -3.5574530000
O                  3.5958200000     -5.5883720000      1.0180680000
O                  2.7576920000     -0.6871610000     -1.5035160000
Cl                 6.0175910000     -6.1988500000     -0.3218620000
H                  4.7576790000     -1.1788530000     -2.6086880000
H                  1.5666770000     -5.0433950000      2.1058570000
H                 -0.4678020000     -3.7366210000      2.7168190000
H                 -0.8866230000     -1.5174920000      1.6067640000
H                  0.7461230000     -0.6762210000     -0.0834050000
H                  7.9310640000     -5.7039870000     -1.9486160000
H                  9.4051690000     -4.7287000000     -3.6345550000
H                  8.8487000000     -2.5213030000     -4.6972650000
H                  6.7899870000     -1.3254850000     -3.9990770000
$end
$rem
   MAX_SCF_CYCLES=200
   BASIS  =  6-311++G(d,p)
   GUI  =  2
   JOB_TYPE  =  SP
   METHOD  =  B3LYP
   SOLVENT_METHOD = PCM
$end
$pcm
   theory = CPCM
$end
$solvent
   dielectric 37.219
   opticaldielectric 1.43
$end





