$molecule
-2 1
C                  2.9832400000     -1.0980550000     -0.1543260000
C                  1.6504130000     -0.4079710000     -0.0031000000
C                  1.5766390000      0.9315490000      0.3814550000
C                  0.3557550000      1.6630690000      0.5256290000
O                  0.3200400000      2.9037210000      0.9206650000
C                 -0.8296660000      0.8997670000      0.2185160000
C                 -0.7711780000     -0.4524720000     -0.1651650000
C                 -2.0347590000     -1.2138780000     -0.4958450000
C                  0.4703340000     -1.1692760000     -0.3075700000
O                  0.5353810000     -2.4123910000     -0.6944120000
C                 -2.1565980000      1.6108390000      0.3496430000
H                  3.1142990000     -1.5010270000     -1.1723840000
H                  3.8152480000     -0.4118020000      0.0508760000
H                  3.0699970000     -1.9665480000      0.5114360000
H                  2.4939250000      1.4691300000      0.6282390000
H                 -2.7966770000     -1.1278520000      0.2914780000
H                 -1.7734430000     -2.2659690000     -0.6373110000
H                 -2.5158030000     -0.8596050000     -1.4280400000
H                 -2.7656750000      1.2301940000      1.1926850000
H                 -1.9584650000      2.6700640000      0.5353830000
H                 -2.7830060000      1.5085110000     -0.5478520000
$end
$rem
   MAX_SCF_CYCLES=200
   BASIS  =  6-311++G(d,p)
   GUI  =  2
   JOB_TYPE  =  SP
   METHOD  =  B3LYP
   SOLVENT_METHOD = PCM
$end
$pcm
   theory = CPCM
$end
$solvent
   dielectric 37.219
   opticaldielectric 1.43
$end





