%chk=302-an.chk
%nproc=8
%mem=30GB
#P UB3LYP/6-311++G(d,p) nosym opt freq SCF=YQC Int=Acc2E=11

Reduced

-2 1
 C                 -1.72955500    4.58197000    5.38475500
 C                 -3.04279700    4.16530700    5.47421400
 C                 -3.60142400    3.36480200    4.44913400
 C                 -0.91562300    4.22027000    4.28227800
 C                 -1.47920600    3.40562600    3.24120400
 C                 -2.82385500    3.00488000    3.36000300
 C                  0.44144800    4.66868200    4.18470200
 C                  1.16500100    4.21559700    3.03983400
 C                  0.68013300    3.37240600    2.03221500
 C                 -0.70991400    2.99027200    2.05803000
 O                  1.05536000    5.43828900    5.02592700
 O                 -1.29370200    2.34211200    1.12046900
 O                  2.44570500    4.70362600    2.99772200
 H                 -1.27940900    5.20042700    6.15436100
 H                 -3.64903800    4.45288300    6.33032100
 H                 -4.63513600    3.03540100    4.51635200
 H                 -3.22590600    2.39744600    2.55628500
 H                  2.45677100    5.23703100    3.83093600
 C                  2.93828500    2.35518100    1.29526000
 C                  3.03991100    1.57939400    2.45136400
 C                  4.06175100    2.45566000    0.46685600
 C                  5.25027800    1.79817200    0.77713300
 C                  5.33798000    1.02171600    1.93400300
 C                  4.22620100    0.91822700    2.76918300
 H                  2.18157700    1.51258100    3.11000500
 H                  3.99092300    3.05424600   -0.43603800
 H                  6.10995800    1.89367300    0.11960000
 H                  4.28321700    0.32520900    3.67719700
 H                  6.26320700    0.51086300    2.18397700
 C                  1.64200400    3.05758400    0.87545400
 H                  1.96799900    4.03277800    0.48695100
 N                  1.06607800    2.34873400   -0.30270400
 C                  0.96513700    0.88752600   -0.18561300
 C                  0.23329200    0.32218100   -1.40442400
 C                  0.14883800   -1.20857100   -1.40665800
 C                 -0.55476900   -1.78409300   -2.64237100
 C                 -0.61863300   -3.31645000   -2.66739900
 C                 -1.29578700   -3.88973000   -3.91871600
 C                 -1.34116100   -5.42243200   -3.95588200
 C                 -1.99866700   -5.99423200   -5.21819600
 C                 -2.03138400   -7.52719900   -5.26080300
 C                 -2.67762000   -8.09791500   -6.52926700
 C                 -2.70292100   -9.63117200   -6.57315800
 C                 -3.34475500  -10.19919100   -7.84234600
 H                  0.09494000    2.66129100   -0.33380000
 H                  0.42330300    0.58449100    0.72216100
 H                  1.97234300    0.46018800   -0.14026300
 H                  0.74457800    0.66685500   -2.31280500
 H                 -0.77876000    0.74366900   -1.42807800
 H                 -0.37572400   -1.54360400   -0.50290000
 H                  1.16240000   -1.62862100   -1.34477500
 H                 -0.03877500   -1.43213800   -3.54612700
 H                 -1.57328500   -1.37820100   -2.69845600
 H                 -1.14913800   -3.67084600   -1.77382300
 H                  0.40019100   -3.72021000   -2.59356500
 H                 -0.77000800   -3.52438200   -4.81111400
 H                 -2.31838900   -3.49597600   -3.98884300
 H                 -1.87717100   -5.78991900   -3.07082700
 H                 -0.31866500   -5.81470700   -3.87401600
 H                 -1.46553900   -5.62111200   -6.10278300
 H                 -3.02357100   -5.60858500   -5.29890800
 H                 -2.57040600   -7.90192500   -4.38058000
 H                 -1.00652100   -7.91206300   -5.17428500
 H                 -2.14093800   -7.72245800   -7.41041700
 H                 -3.70412300   -7.71853600   -6.61691000
 H                 -3.24072200  -10.00811900   -5.69387000
 H                 -1.67701700  -10.01087300   -6.48414200
 H                 -4.38619900   -9.87340400   -7.94460500
 H                 -3.34474400  -11.29461000   -7.83937800
 H                 -2.80727700   -9.87619500   -8.74126700


















