$molecule
0 1
C                  2.7881340000      3.5993300000      4.1674500000
C                  3.8121040000      2.8068570000      3.4465910000
C                  3.4743800000      1.7929260000      2.6424820000
C                  2.0498180000      1.4147860000      2.4353420000
C                  1.3467110000      3.2195950000      3.9603630000
C                  1.0232930000      2.1926540000      3.1444000000
O                  3.1006080000      4.5210280000      4.8983550000
O                  1.7566290000      0.4850260000      1.6963170000
S                  0.2395470000      4.2463290000      4.8786180000
C                 -1.3609950000      3.5599650000      4.4320260000
C                 -1.9293450000      2.5517640000      5.2153300000
C                 -2.0624160000      4.0818290000      3.3417840000
C                 -3.3276040000      3.5862400000      3.0318800000
C                 -3.1949130000      2.0610520000      4.8994850000
C                 -3.8933730000      2.5761300000      3.8084120000
H                  4.8394180000      3.1080030000      3.6190440000
H                  4.2071640000      1.2004340000      2.1060420000
H                 -0.0014390000      1.8892700000      2.9698050000
H                 -1.3842240000      2.1590100000      6.0653120000
H                 -1.6201630000      4.8706520000      2.7450790000
H                 -3.8703750000      3.9917730000      2.1857430000
H                 -3.6343350000      1.2786600000      5.5075610000
H                 -4.8782730000      2.1936970000      3.5660680000
$end
$rem
   MAX_SCF_CYCLES=200
   BASIS  =  6-311++G(d,p)
   GUI  =  2
   JOB_TYPE  =  SP
   METHOD  =  B3LYP
   SOLVENT_METHOD = COSMO
$end
$solvent
   dielectric 37.219
   opticaldielectric 1.43
$end





