%chk=198-rad.chk
%nproc=8
%mem=30GB
#P UB3LYP/6-311++G(d,p) nosym opt freq

Radical

-1 2
N     2.9788036245   -1.4264362984    1.2517930229
C     2.6221249409   -0.5788151456    0.1771833315
C     3.5648088330   -0.0881276285   -0.7133708648
C     3.1879166221    0.7242756502   -1.7350275469
C     1.8753456417    1.0821665170   -1.9171790774
O     1.5029267681    1.9055435269   -2.9548501794
C     0.9352459656    0.5947043079   -1.0316443681
C    -0.4841666220    0.9846858317   -1.2327379932
O    -0.7315011516    1.7375085838   -2.2032857197
C    -1.4946835860    0.4831529665   -0.3115798614
C    -2.8115315513    0.8399815924   -0.4913195860
O    -3.2609987287    1.6436267912   -1.4840701859
C    -3.7854938675    0.3595032233    0.3925710182
C    -3.4115042253   -0.4558021081    1.4188693708
C    -2.0941537808   -0.7963753281    1.5762842725
N    -1.7049248750   -1.6467944870    2.6469519174
C    -1.1178500665   -0.3387451871    0.7230654054
C     0.2651534987   -0.7358810179    0.9424352458
O     0.6438240922   -1.4803994732    1.8709557967
C     1.2724745815   -0.2322502407    0.0191580027
H     3.1538768540   -2.4329532670    1.0880132108
H     3.0734882539   -1.0702109977    2.2175931508
H     4.5988678881   -0.4006575103   -0.5281196571
H     3.9643862033    1.0826291488   -2.4059921244
H     2.2133174744    2.2469740873   -3.5871337537
H    -2.8533200809    2.1066040305   -2.2117738965
H    -4.8055164614    0.6308147937    0.2603155428
H    -4.1784219331   -0.8227533573    2.0992721273
H    -1.4444789756   -2.6474045918    2.5030145354
H    -1.6740153368   -1.2685644118    3.6206088631


