%chk=283.chk
%nproc=8
%mem=30GB
#P UB3LYP/6-311++G(d,p) nosym opt freq

Oxidized

0 1
C                 -2.0315100000      3.1323610000      0.1276980000
C                 -3.1834820000      2.3530780000      0.0914880000
C                 -3.0839540000      0.9648940000     -0.0220880000
C                 -0.7795950000      2.5156640000      0.0538690000
C                 -0.6761880000      1.1222640000     -0.0582950000
C                 -1.8357020000      0.3491780000     -0.0958220000
C                  0.4530870000      3.3178910000      0.0937440000
C                  1.7762300000      2.6194360000      0.0173300000
C                  1.9041400000      1.2721340000     -0.0939170000
C                  0.6658210000      0.4548230000     -0.1391440000
O                  0.4672210000      4.5399860000      0.1888860000
O                  0.7296350000     -0.7623110000     -0.2368360000
H                 -2.0823290000      4.2105700000      0.2146380000
H                 -4.1575330000      2.8240240000      0.1480160000
H                 -3.9830960000      0.3597030000     -0.0510490000
H                 -1.7406860000     -0.7257020000     -0.1838300000
C                  3.1872980000      0.4750980000     -0.1732500000
O                  2.8090830000      3.4766070000      0.0734830000
H                  3.1034650000     -0.1732050000     -1.0547730000
H                  3.1773440000     -0.2282290000      0.6711110000
H                  2.4092600000      4.3647620000      0.1486080000
C                  4.5326020000      1.2105800000     -0.2051150000
C                  5.7026640000      0.2260790000     -0.3066730000
C                  7.0732760000      0.9101250000     -0.3296110000
C                  8.2417620000     -0.0757290000     -0.4310680000
H                  4.6510490000      1.8243690000      0.6931980000
H                  4.5649240000      1.9029630000     -1.0523320000
H                  5.5898280000     -0.3850860000     -1.2140470000
H                  5.6643530000     -0.4761730000      0.5371770000
H                  7.1888000000      1.5199240000      0.5749730000
H                  7.1143540000      1.6107810000     -1.1729330000
H                  8.2481520000     -0.7682970000      0.4181420000
H                  9.2032110000      0.4437080000     -0.4427300000
H                  8.1754440000     -0.6762110000     -1.3452120000





