%chk=274-PCM.chk
%nproc=8
%mem=30GB
#P UB3LYP/6-311++G(d,p) SCRF=(PCM,Solvent=n,n-DiMethylFormamide)

Quinone PCM in DMF 

0 1
C                 -1.7044140000      3.0981920000      0.2159450000
C                 -2.8895730000      2.3856550000      0.0697950000
C                 -2.8551540000      1.0050700000     -0.1410130000
C                 -0.4756660000      2.4337530000      0.1405120000
C                 -0.4433050000      1.0482840000     -0.0721260000
C                 -1.6355590000      0.3376910000     -0.2087960000
C                  0.7786520000      3.2144680000      0.3308570000
C                  2.0964220000      2.5017520000      0.0896070000
C                  2.0781780000      1.1415990000     -0.0786610000
C                  0.8697430000      0.3382220000     -0.1559740000
O                  0.7394430000      4.3714200000      0.7120970000
O                  0.9184340000     -0.8769540000     -0.3256920000
N                  3.2580160000      3.2212850000      0.1937030000
C                  3.4028470000      4.5925600000     -0.3072960000
C                  4.5193360000      2.4980240000      0.2676650000
H                 -1.7104410000      4.1667450000      0.3913500000
H                 -3.8407470000      2.9028550000      0.1237750000
H                 -3.7808650000      0.4513500000     -0.2507990000
H                 -1.5825260000     -0.7324840000     -0.3670650000
H                  2.9916220000      0.5769360000     -0.2062250000
H                  2.4400170000      5.0783830000     -0.3977200000
H                  3.9045580000      4.5812100000     -1.2841860000
H                  4.0141790000      5.1713580000      0.3895350000
H                  4.4569860000      1.7010220000      1.0103580000
H                  5.2997200000      3.1959250000      0.5732050000
H                  4.8089960000      2.0574710000     -0.6972250000





