%chk=050-rad-PCM.chk
%nproc=8
%mem=30GB
#P UB3LYP/6-311++G(d,p) SCRF=(PCM,Solvent=n,n-DiMethylFormamide)

Radical PCM in DMF 

-1 2
C                  7.1948680000      1.1919300000      0.2117650000
C                  8.2930470000      1.0332210000      1.1542310000
C                  8.8927830000     -0.1911630000      1.3524900000
C                  8.4566550000     -1.3789550000      0.6289200000
C                  7.3533050000     -1.2215710000     -0.3129030000
C                  6.7646260000      0.0075160000     -0.5161460000
O                  6.6292380000      2.3132660000      0.0259940000
O                  9.0131260000     -2.5043750000      0.8109340000
C                  5.6239550000      0.2094210000     -1.5002500000
C                  6.9012480000     -2.4631790000     -1.0457170000
C                  8.7438160000      2.2628230000      1.9041260000
C                 10.0296850000     -0.3579390000      2.3311270000
C                  4.2730140000      0.1063330000     -0.8384850000
H                  5.7107380000     -0.4843620000     -2.3387150000
H                  5.7188230000      1.2284180000     -1.8931080000
H                  7.4380670000     -3.3249600000     -0.6482730000
H                  7.1109140000     -2.4013780000     -2.1219750000
H                  5.8245050000     -2.6300740000     -0.9355230000
H                  8.1456150000      3.1178900000      1.5879600000
H                  9.8026430000      2.4855020000      1.7199290000
H                  8.6338890000      2.1400880000      2.9894610000
H                  9.7339600000     -0.0722990000      3.3488200000
H                 10.8888100000      0.2720270000      2.0664160000
H                 10.3501570000     -1.3999560000      2.3387900000
C                  3.2058570000     -0.6242270000     -1.1934220000
C                  3.1588640000     -1.5418410000     -2.3930410000
C                  1.9345820000     -0.5685770000     -0.3686290000
C                  0.7309670000      0.0763210000     -1.0840090000
C                 -0.5209710000      0.1340700000     -0.1994050000
C                 -1.7991470000      0.6590900000     -0.8841360000
C                 -3.0177080000      0.4552040000      0.0387640000
C                 -4.3870350000      0.7178110000     -0.6028910000
C                 -5.5542870000      0.4063020000      0.3435420000
C                 -6.9635670000      0.5435620000     -0.2675370000
C                 -8.0189270000     -0.0213340000      0.7046950000
C                 -9.4378110000     -0.1590890000      0.1363210000
C                 -1.6515440000      2.1242000000     -1.3227340000
C                -10.4098600000     -0.8200650000      1.1225580000
C                -11.8307530000     -1.0733260000      0.5833570000
C                -12.5774270000      0.2278610000      0.2550800000
C                -12.6405400000     -1.9206100000      1.5752490000
H                  4.1852610000      0.7293240000      0.0495740000
H                  4.1360080000     -1.6661920000     -2.8589740000
H                  2.4719830000     -1.1682210000     -3.1628840000
H                  2.7954790000     -2.5369580000     -2.1052740000
H                  2.1334340000     -0.0142440000      0.5545360000
H                  1.6507090000     -1.5881280000     -0.0654490000
H                  0.4961730000     -0.4854070000     -1.9967120000
H                  1.0219330000      1.0819990000     -1.4042970000
H                 -0.3117140000      0.7515720000      0.6851890000
H                 -0.7232940000     -0.8760000000      0.1801400000
H                 -1.9631310000      0.0505520000     -1.7860230000
H                 -2.9034010000      1.0954600000      0.9245450000
H                 -3.0008650000     -0.5774410000      0.4097120000
H                 -4.4837230000      0.1014030000     -1.5071200000
H                 -4.4457910000      1.7588240000     -0.9332670000
H                 -5.4860450000      1.0532760000      1.2292400000
H                 -5.4365340000     -0.6206350000      0.7118720000
C                 -7.2744780000      1.9932930000     -0.6705380000
H                 -8.0479490000      0.6096870000      1.6039110000
H                 -7.6832560000     -1.0101170000      1.0417010000
H                 -9.3992390000     -0.7565010000     -0.7846940000
H                 -9.8186800000      0.8251330000     -0.1516810000
H                 -0.8038900000      2.2568780000     -1.9981630000
H                 -1.4861590000      2.7711920000     -0.4533470000
H                 -2.5418650000      2.4858940000     -1.8439930000
H                -10.4803000000     -0.2058540000      2.0312380000
H                 -9.9845650000     -1.7803400000      1.4408120000
H                -11.7337950000     -1.6498590000     -0.3472680000
H                -12.0627730000      0.8166650000     -0.5079040000
H                -12.6768710000      0.8535370000      1.1495710000
H                -13.5853910000      0.0176970000     -0.1156890000
H                -12.1442320000     -2.8730710000      1.7841390000
H                -13.6399730000     -2.1409360000      1.1876210000
H                -12.7632580000     -1.3939170000      2.5283780000
H                 -6.9895960000     -0.0739660000     -1.1775330000
H                 -7.2595780000      2.6487610000      0.2081320000
H                 -8.2586830000      2.0836170000     -1.1369130000
H                 -6.5431380000      2.3790420000     -1.3842110000





