%chk=336-an.chk
%nproc=8
%mem=30GB
#P UB3LYP/6-311++G(d,p) nosym opt freq

Reduced

-2 1
  O    0.2315084    0.3953528    2.5442094
  C    0.1233617    0.2092607    1.3456330
  C   -1.1515907    0.1145342    0.7233202
  C   -2.4059971    0.2229019    1.4082024
  C   -3.5984048    0.1123241    0.6845223
  C   -3.5915858   -0.1011372   -0.6891876
  C   -2.3883057   -0.2101941   -1.3789547
  C   -1.1694563   -0.1043735   -0.6856621
  O   -0.0363811   -0.2127603   -1.3717128
  C    1.1620717   -0.1283119   -0.8161962
  C    2.3025722   -0.2546599   -1.6176886
  C    3.5748922   -0.1680819   -1.0477625
  C    3.7134443    0.0451250    0.3254978
  C    2.5804363    0.1726396    1.1345999
  C    1.2910474    0.0868837    0.5698448
  O   -2.5386410    0.4299349    2.7393731
  H   -4.5487165    0.1936057    1.1981481
  H   -4.5309712   -0.1824384   -1.2219016
  O   -2.4217436   -0.4174345   -2.7130697
  H    2.2023703   -0.4200842   -2.6831191
  H    4.4543208   -0.2663228   -1.6710112
  H    4.7007109    0.1117586    0.7641873
  H    2.7154596    0.3374676    2.1965493
  H   -1.8345294    0.5293101    3.3863014
  H   -1.6229972   -0.5024583   -3.2522986




