%chk=015-rad-PCM.chk
%nproc=8
%mem=30GB
#P UB3LYP/6-311++G(d,p) SCRF=(PCM,Solvent=n,n-DiMethylFormamide)

Radical PCM in DMF 

-1 2
C                 -1.8202550000      0.3084300000     -1.0859560000
C                 -1.1799730000      0.1390590000      0.3133970000
C                 -1.8796680000     -1.0457810000      1.0070480000
C                 -1.4491370000      1.4052780000      1.1625620000
C                  0.3378960000     -0.0839540000      0.1715880000
C                  0.9479750000     -1.2214140000      0.6260650000
C                  2.3642560000     -1.5116100000      0.5336760000
O                  2.8487460000     -2.5803220000      0.9751390000
C                  3.1560380000     -0.4696280000     -0.1057390000
C                  2.5762520000      0.6840450000     -0.5729150000
Br                 3.6040960000      2.0692330000     -1.4183430000
C                  1.1431690000      0.9622680000     -0.4720650000
O                  0.6510440000      2.0299010000     -0.9116800000
Br                 5.0368370000     -0.8247380000     -0.2432900000
H                 -2.9009650000      0.4688800000     -0.9882570000
H                 -1.6655130000     -0.5924330000     -1.6887340000
H                 -1.3816790000      1.1573580000     -1.6088130000
H                 -1.7601220000     -1.9768310000      0.4455360000
H                 -2.9519710000     -0.8365870000      1.0819010000
H                 -1.5002520000     -1.2084120000      2.0199820000
H                 -1.0293260000      1.2882790000      2.1670120000
H                 -2.5292370000      1.5676150000      1.2638820000
H                 -1.0010130000      2.2823180000      0.6973890000
H                  0.3827990000     -2.0109540000      1.1049260000





