%chk=057-PCM.chk
%nproc=8
%mem=30GB
#P UB3LYP/6-311++G(d,p) SCRF=(PCM,Solvent=n,n-DiMethylFormamide)

Quinone PCM in DMF 

0 1
C                 -0.2269580000      1.0002560000      0.1305530000
C                 -1.4150690000      0.2049460000     -0.2602820000
C                 -1.3484960000     -1.1246070000     -0.3770770000
C                 -0.0836980000     -1.8523140000     -0.1236040000
C                  1.1447600000     -1.0646710000      0.2437410000
C                  1.0566850000      0.2798670000      0.3743530000
O                 -0.3071500000      2.2156150000      0.2281700000
O                 -0.0408030000     -3.0673540000     -0.2142460000
C                  2.2649830000      1.1307490000      0.7307730000
C                  2.1935240000      1.9484820000      1.9963720000
O                  3.2437490000      1.1100790000      0.0175540000
H                 -2.3215270000      0.7714050000     -0.4425550000
H                 -2.1981180000     -1.7367770000     -0.6582270000
H                  1.9093390000      1.3145180000      2.8426760000
H                  1.4221240000      2.7147020000      1.8896090000
H                  3.1610390000      2.4129620000      2.1840840000
C                  2.3868310000     -1.8789240000      0.4448860000
H                  2.7090780000     -2.3009510000     -0.5121400000
H                  2.1748640000     -2.7285270000      1.0977360000
H                  3.2082310000     -1.2912150000      0.8467040000





