$molecule
-1 2
C                 -2.5944850000     -2.4921330000      0.4055760000
O                 -2.4129980000     -1.2866460000     -0.3339220000
C                 -1.1845300000     -0.6804450000     -0.1930100000
C                 -1.1493220000      0.6081870000      0.3249430000
O                 -2.3215050000      1.1399530000      0.8145570000
C                 -2.7792660000      2.3245420000      0.1663800000
C                  0.0736920000      1.3727590000      0.4416530000
O                  0.0992810000      2.5343560000      0.9315050000
C                  1.2923650000      0.7010960000     -0.0308470000
C                  2.5276310000      1.3745750000      0.0444860000
C                  3.6973700000      0.7698180000     -0.3798040000
C                  3.6630770000     -0.5408950000     -0.8960970000
C                  2.4599790000     -1.2192930000     -0.9758250000
C                  1.2585080000     -0.6214340000     -0.5466960000
C                 -0.0010070000     -1.3700750000     -0.6594670000
O                 -0.0450530000     -2.5320860000     -1.1470570000
H                 -1.8570180000     -3.2426060000      0.1140480000
H                 -2.5282970000     -2.2936020000      1.4835660000
H                 -3.6014620000     -2.8445880000      0.1703700000
H                 -2.0358010000      3.1207280000      0.2398380000
H                 -3.6960690000      2.6188830000      0.6825040000
H                 -3.0125620000      2.1188990000     -0.8867850000
H                  2.5235100000      2.3809090000      0.4476710000
H                  4.6410950000      1.3037650000     -0.3156210000
H                  4.5802790000     -1.0171010000     -1.2304720000
H                  2.4025880000     -2.2275670000     -1.3699960000
$end
$rem
   MAX_SCF_CYCLES=200
   BASIS  =  6-311++G(d,p)
   GUI  =  2
   JOB_TYPE  =  SP
   METHOD  =  B3LYP
   SOLVENT_METHOD = COSMO
$end
$solvent
   dielectric 37.219
   opticaldielectric 1.43
$end





