%chk=287-rad.chk
%nproc=8
%mem=30GB
#P UB3LYP/6-311++G(d,p) nosym opt freq

Radical

-1 2
C                 -0.32254900    3.79780000   -0.18359200
 C                 -1.52654900    3.20802800   -0.52102100
 C                 -1.55678100    1.87150900   -0.96822000
 C                  0.88797100    3.07767500   -0.28004000
 C                  0.85952800    1.72702700   -0.73216800
 C                 -0.37774300    1.15085500   -1.06906500
 C                  2.14813700    3.69595200    0.07348300
 C                  3.33244600    2.87906400   -0.05887300
 C                  3.34006600    1.56789500   -0.48575400
 C                  2.09636300    0.92614100   -0.85398600
 O                  2.28795900    4.89356300    0.48809400
 O                  2.05850200   -0.26500700   -1.25970100
 H                 -0.27365400    4.82398800    0.16294700
 H                 -2.45027800    3.77410400   -0.44197700
 H                 -2.50296400    1.40896000   -1.23305300
 H                 -0.37118000    0.12193100   -1.41073400
 O                  4.48164600    3.52854800    0.28861400
 C                  4.62071900    0.78188400   -0.59868000
 C                  5.23397100    0.81850900   -2.01191500
 C                  6.51634800   -0.01184300   -2.13316800
 C                  7.13734900    0.01429900   -3.53462300
 C                  8.41924700   -0.81735800   -3.66031100
 H                  4.14219400    4.41379100    0.54822300
 H                  4.40496700   -0.26068600   -0.34349300
 H                  5.35203700    1.16752200    0.11909700
 H                  5.44479500    1.85990700   -2.28344000
 H                  4.48780300    0.44756000   -2.72261100
 H                  6.29877200   -1.05163300   -1.85464000
 H                  7.25486000    0.35105200   -1.40495600
 H                  7.35273400    1.05406600   -3.81445400
 H                  6.39883400   -0.34806400   -4.26158300
 H                  8.20372500   -1.85695100   -3.37994300
 H                  9.15805800   -0.45486700   -2.93310100
 C                  9.03829600   -0.79198700   -5.06267500
 H                  9.25433200    0.24740000   -5.34316700
 H                  8.29929100   -1.15375200   -5.78964400
 C                 10.31896400   -1.62478100   -5.18903000
 H                 10.10362400   -2.66467800   -4.90934200
 H                 11.05906000   -1.26366400   -4.46244200
 C                 10.93793500   -1.59965700   -6.59129400
 C                 12.21671700   -2.43509500   -6.70721600
 H                 11.15424800   -0.56118400   -6.87098800
 H                 10.19933900   -1.96096400   -7.31745900
 H                 12.98708400   -2.07583900   -6.01700300
 H                 12.63267800   -2.39607300   -7.71857600
 H                 12.02493900   -3.48603800   -6.46716000













