%chk=181-an.chk
%nproc=8
%mem=30GB
#P UB3LYP/6-311++G(d,p) nosym opt freq

Reduced

-2 1
N                 -2.5823290000     -2.2747500000      0.6046910000
C                 -2.3465170000     -0.9339700000      0.2205480000
C                 -3.4190290000     -0.0934260000     -0.0011980000
C                 -3.2152830000      1.2725310000     -0.3104360000
C                 -1.9425690000      1.8027910000     -0.3636380000
O                 -1.8156540000      3.1638910000     -0.6220860000
C                 -0.7781180000      0.9886580000     -0.1796180000
C                  0.5604110000      1.5556710000     -0.2901910000
O                  0.8098900000      2.7752190000     -0.5525500000
C                  1.6538800000      0.6119000000     -0.0828640000
C                  2.9848020000      1.0853130000     -0.1503570000
C                  4.0738430000      0.2502780000      0.0122680000
C                  3.8594350000     -1.1354370000      0.2510120000
C                  2.5729680000     -1.6267250000      0.3197680000
C                  1.4365400000     -0.7868930000      0.1629050000
C                  0.1180830000     -1.3556240000      0.2522770000
O                 -0.0167750000     -2.6413930000      0.4432840000
C                 -0.9899830000     -0.4389670000      0.1112550000
H                 -3.3416470000     -2.6913370000      0.0818930000
H                 -1.6867270000     -2.7948470000      0.5437030000
H                 -4.4301810000     -0.4784150000      0.1136840000
H                 -4.0725780000      1.9171560000     -0.5080100000
H                 -2.7100320000      3.5177010000     -0.5515690000
H                  3.1067080000      2.1469320000     -0.3415830000
H                  5.0861680000      0.6470050000     -0.0427830000
H                  4.7088340000     -1.8049630000      0.3795000000
H                  2.3758610000     -2.6782990000      0.5000960000


