$molecule
0 1
C                 -1.5704020000     -1.5506520000     -0.6407250000
C                 -1.1907760000     -0.1379610000     -0.1289980000
C                 -1.5595950000      0.0011080000      1.3697260000
C                 -2.0172300000      0.8930900000     -0.9203600000
C                  0.3121780000      0.0960540000     -0.3179050000
C                  0.8170460000      1.0805920000     -1.0817010000
C                  2.2577430000      1.3339590000     -1.2854100000
O                  2.6382960000      2.2457610000     -1.9923560000
C                  3.2215540000      0.4261550000     -0.5887630000
C                  2.7605330000     -0.5740410000      0.1868290000
Cl                 3.8059070000     -1.6630810000      1.0231640000
C                  1.2845160000     -0.8167600000      0.3820590000
O                  0.9228440000     -1.7318790000      1.0907700000
Cl                 4.8964530000      0.7429090000     -0.8424680000
H                 -1.0729420000     -2.3351480000     -0.0730640000
H                 -2.6507570000     -1.6897230000     -0.5439220000
H                 -1.3132050000     -1.6646740000     -1.6978890000
H                 -1.0617450000     -0.7492050000      1.9815250000
H                 -2.6398140000     -0.1223620000      1.4870210000
H                 -1.2948920000      0.9936370000      1.7460080000
H                 -3.0795290000      0.6945860000     -0.7610220000
H                 -1.8302620000      0.8325980000     -1.9960750000
H                 -1.8222570000      1.9174480000     -0.5910300000
H                  0.1863340000      1.7775910000     -1.6170050000
$end
$rem
   MAX_SCF_CYCLES=200
   BASIS  =  6-311++G(d,p)
   GUI  =  2
   JOB_TYPE  =  SP
   METHOD  =  B3LYP
   SOLVENT_METHOD = COSMO
$end
$solvent
   dielectric 37.219
   opticaldielectric 1.43
$end





