$molecule
-2 1
Cl                -2.6811650000     -1.7227530000     -0.0124210000
C                 -1.1499090000     -0.7542960000     -0.0049120000
C                 -1.2827100000      0.6269030000     -0.0378820000
C                 -0.1693310000      1.5295360000     -0.0367830000
O                 -0.2963890000      2.8098910000     -0.0675720000
C                  1.0777990000      0.8200000000      0.0021980000
C                  1.1826190000     -0.5828360000      0.0351080000
Cl                 2.7938300000     -1.3575840000      0.0822690000
C                  0.0717300000     -1.5016340000      0.0345840000
O                  0.1704080000     -2.7763900000      0.0643920000
Cl                 2.5538380000      1.8348290000      0.0074000000
H                 -2.2707200000      1.0743350000     -0.0663820000
$end
$rem
   MAX_SCF_CYCLES=200
   BASIS  =  6-311++G(d,p)
   GUI  =  2
   JOB_TYPE  =  SP
   METHOD  =  B3LYP
   SOLVENT_METHOD = PCM
$end
$pcm
   theory = CPCM
$end
$solvent
   dielectric 37.219
   opticaldielectric 1.43
$end





