$molecule
-1 2
C                 -0.6391460000      2.6799880000     -0.9636810000
C                 -1.7135230000      2.0640820000     -0.3717310000
C                 -1.5878360000      0.7510950000      0.1574610000
C                  0.6255520000      2.0266890000     -1.0649210000
C                  0.7510740000      0.6956470000     -0.5278170000
C                 -0.3842370000      0.0912560000      0.0776080000
C                  1.7446550000      2.6280480000     -1.6641370000
C                  2.9709790000      1.9703480000     -1.7517940000
C                  3.0951650000      0.6374910000     -1.2135550000
C                  1.9978560000      0.0410180000     -0.6230120000
C                  4.1133170000      2.6100300000     -2.3744690000
C                  5.3387560000      1.8475160000     -2.4165690000
C                  5.4784810000      0.5749790000     -1.9091610000
C                  4.3867060000     -0.1100330000     -1.2823120000
O                  4.1135700000      3.7807120000     -2.8804260000
O                  4.4839170000     -1.2669340000     -0.8117090000
O                  6.3716180000      2.4997940000     -3.0114680000
H                 -0.7360460000      3.6833490000     -1.3677920000
H                 -2.6668270000      2.5792350000     -0.3051900000
H                 -2.4440980000      0.2741150000      0.6231800000
H                 -0.2811150000     -0.9123230000      0.4799530000
H                  1.6719820000      3.6295350000     -2.0747900000
H                  2.1213760000     -0.9618170000     -0.2271330000
H                  6.4307680000      0.0608280000     -1.9757260000
H                  5.9593560000      3.3576220000     -3.2570690000
$end

$rem
   BASIS  =  6-311++G(d,p)
   GUI  =  2
   JOB_TYPE  =  SP
   METHOD  =  B3LYP
   SCF_CONVERGENCE  = 8
   SOLVENT_METHOD = sm12
$end

$smx
   solvent dimethylformamide
   charges CM5
$end





