%chk=333-PCM.chk
%nproc=8
%mem=30GB
#P UB3LYP/6-311++G(d,p) SCRF=(PCM,Solvent=n,n-DiMethylFormamide)

Quinone PCM in DMF 

0 1
C                 -1.23387000    1.88922900   -2.91386200
 C                 -2.18168300    1.96163100   -1.78169000
 C                  0.18927400    1.86305700   -2.51465400
 C                  0.56888600    1.50698100   -1.27129300
 C                 -0.49536700    0.91201600   -0.39361100
 C                 -1.82041100    1.60612600   -0.53272100
 C                 -0.31394700   -0.22894700    0.34609600
 C                 -1.37810700   -0.82397600    1.22385900
 C                  1.01116300   -0.92295400    0.48510400
 C                  1.37253400   -1.27855700    1.73402900
 C                  0.42478700   -1.20628500    2.86627200
 C                 -0.99838200   -1.18005200    2.46717700
 O                 -1.58905800    2.01172300   -4.07919800
 O                  0.78002200   -1.32875700    4.03159600
 C                  1.95248400    1.83469600   -0.71838700
 C                  1.86195500    3.13069100    0.11926400
 C                  3.04110000    1.97543600   -1.79015100
 C                  1.81293500   -1.34120900   -0.74358200
 C                  1.16970300   -2.60814400   -1.35226800
 C                  3.30228800   -1.58684600   -0.46956200
 C                 -2.76181700   -1.15160200    0.67119500
 C                 -3.85026500   -1.29215700    1.74315400
 C                 -2.67157500   -2.44768800   -0.16634100
 C                 -2.62219300    2.02466600    0.69585000
 C                 -1.97890000    3.29169400    1.30427900
 C                 -4.11151600    2.27035900    0.42171800
 H                 -3.14327100    2.40771300   -2.00481500
 H                  0.88845100    2.24011300   -3.25110400
 H                  2.33415400   -1.72459000    1.95708700
 H                 -1.69753300   -1.55705500    3.20368400
 H                  2.25304200    1.04955900   -0.02450300
 H                  2.84222600    3.36660500    0.54269300
 H                  1.15913700    3.02727400    0.94759800
 H                  1.54291500    3.97467700   -0.49826400
 H                  3.11100700    1.08933800   -2.42579300
 H                  4.01245600    2.12434400   -1.31176900
 H                  2.86283200    2.83976700   -2.43561100
 H                  1.72694500   -0.56573600   -1.50483800
 H                  1.19378800   -3.43909300   -0.64208100
 H                  1.71890300   -2.90739300   -2.24933300
 H                  0.13187200   -2.43454100   -1.64124700
 H                  3.45549900   -2.44968500    0.18424400
 H                  3.78429600   -0.72294800   -0.00540500
 H                  3.82019900   -1.79722100   -1.40875000
 H                 -3.06239400   -0.36653100   -0.02273200
 H                 -4.82171800   -1.44107400    1.26496800
 H                 -3.92000800   -0.40601200    2.37874600
 H                 -3.67188900   -2.15644100    2.38864900
 H                 -3.65194500   -2.68358500   -0.58956100
 H                 -2.35248900   -3.29162000    0.45123700
 H                 -1.96890000   -2.34445000   -0.99481900
 H                 -2.53623900    1.24938400    1.45728200
 H                 -2.52802600    3.59114500    2.20132400
 H                 -2.00302500    4.12249600    0.59392600
 H                 -0.94103900    3.11814700    1.59321100
 H                 -4.62947300    2.48097900    1.36082700
 H                 -4.59358500    1.40643400   -0.04232600
 H                 -4.26456700    3.13308600   -0.23227600





