%chk=122-an.chk
%nproc=8
%mem=30GB
#P UB3LYP/6-311++G(d,p) nosym opt freq

Reduced

-2 1
Cl   -2.2314186620    2.7585916958    1.7397187153
C    -2.3614152312    1.1689942815    1.0147132163
C    -3.5897804037    0.5445741498    0.9606484540
C    -3.6777220174   -0.7121715557    0.3845337020
C    -2.5414728156   -1.2854124269   -0.1088047419
C    -1.3065357805   -0.6925779065   -0.0709405935
C    -0.0970578435   -1.3164114583   -0.6025037656
O    -0.1684522884   -2.4548836743   -1.1260239236
C     1.2064286579   -0.6639049772   -0.5498901637
C     2.3569175881   -1.2525596722   -1.0532826234
C     3.5939835200   -0.6455374249   -1.0091302024
C     3.6738222716    0.6061417687   -0.4338209622
C     2.5364316165    1.2032074424    0.0709768133
Cl    2.6388229810    2.7893630315    0.7997709500
C     1.2985403083    0.5965621663    0.0271641809
C     0.0844677167    1.2087546355    0.5541324674
O     0.1609008440    2.3559153842    1.0807684144
C    -1.2184762886    0.5614946599    0.5038893612
H    -4.4983486267    1.0013144634    1.3543514484
H    -4.6572963046   -1.1800904160    0.3556175846
H    -2.6306928446   -2.2747007743   -0.5584022844
H     2.2931537337   -2.2339539551   -1.5041321324
H     4.4808736882   -1.1444700487   -1.4184973294
H     4.6543261806    1.0617606110   -0.4108565850


