%chk=234.chk
%nproc=8
%mem=30GB
#P UB3LYP/6-311++G(d,p) nosym opt freq

Oxidized

0 1
C                  5.7364370000     -5.2385650000      1.1146060000
C                  6.6837410000     -5.1122090000      0.1025780000
C                  6.5614660000     -4.0830670000     -0.8443440000
C                  4.6670330000     -4.3487450000      1.1929860000
C                  4.5460720000     -3.3210830000      0.2465670000
C                  5.4930060000     -3.1939750000     -0.7660350000
C                  3.6636290000     -4.5043400000      2.2871730000
C                  2.5272450000     -3.5295740000      2.3413820000
C                  2.4355820000     -2.5519750000      1.4195680000
C                  3.4045180000     -2.3625190000      0.3213760000
O                  3.7563810000     -5.3930030000      3.1163200000
O                  3.2689590000     -1.4573180000     -0.4857500000
H                  5.8188550000     -6.0274190000      1.8508230000
H                  5.3846340000     -2.3953030000     -1.4883840000
Br                 8.1163610000     -6.3653200000      0.0603810000
Br                 7.8167190000     -3.8478550000     -2.2555870000
C                  1.5389540000     -3.7140510000      3.4514730000
H                  1.6220000000     -1.8337310000      1.4373970000
H                  2.0389710000     -3.6594490000      4.4223850000
H                  1.0847730000     -4.7073880000      3.3984620000
H                  0.7546330000     -2.9580420000      3.4082630000


