$molecule
-1 2
C                  0.2561850000      3.9358110000      0.3266390000
C                 -0.9080710000      3.5440990000      0.9633550000
C                 -1.2667710000      2.1824560000      0.9946130000
C                  1.0962440000      2.9901950000     -0.2938620000
C                  0.7350910000      1.6221550000     -0.2639970000
C                 -0.4548190000      1.2411330000      0.3875050000
C                  2.3204710000      3.4475160000     -0.9752340000
C                  3.1467860000      2.4059290000     -1.5579290000
C                  2.8037690000      1.0527200000     -1.5306710000
C                  1.5782570000      0.5992520000     -0.8996810000
O                  2.6054340000      4.6709120000     -1.0271710000
O                  1.2443000000     -0.6173450000     -0.8771770000
H                  0.5567460000      4.9762340000      0.2829900000
H                 -1.5451380000      4.2846980000      1.4381680000
H                 -2.1809010000      1.8732490000      1.4932340000
H                 -0.7055670000      0.1866520000      0.3928550000
S                  4.6169830000      2.9154610000     -2.4571490000
C                  3.6628610000     -0.0158570000     -2.1568710000
H                  3.5554330000     -0.0298260000     -3.2492150000
H                  3.3487550000     -0.9905120000     -1.7826670000
H                  4.7218650000      0.1534680000     -1.9484570000
C                  5.5326910000      3.9338320000     -1.2207560000
C                  6.7701740000      4.5418830000     -1.8749080000
H                  5.8120610000      3.2866900000     -0.3854710000
H                  4.8444490000      4.7000290000     -0.8680460000
H                  7.4409390000      3.7716700000     -2.2693640000
H                  7.3316130000      5.1347950000     -1.1446470000
H                  6.4917780000      5.2022700000     -2.7010960000
$end
$rem
   MAX_SCF_CYCLES=200
   BASIS  =  6-311++G(d,p)
   GUI  =  2
   JOB_TYPE  =  SP
   METHOD  =  B3LYP
   SOLVENT_METHOD = PCM
$end
$pcm
   theory = CPCM
$end
$solvent
   dielectric 37.219
   opticaldielectric 1.43
$end






