$molecule
0 1
O                 -0.0181840000     -2.3786060000     -0.6984580000
C                 -0.0199320000     -1.2495210000     -0.2421530000
C                  1.2717800000     -0.5681050000      0.0936640000
C                  2.4321050000     -1.3497400000      0.1558760000
C                  3.6470730000     -0.7865320000      0.5273290000
C                  3.7237310000      0.5686200000      0.8512440000
C                  2.5844380000      1.3668690000      0.7922170000
C                  1.3758860000      0.7920060000      0.4139010000
S                 -0.0208250000      1.8977530000      0.1862830000
O                 -0.0141180000      2.3605310000     -1.2050800000
C                 -1.4204020000      0.7929990000      0.4007510000
C                 -2.6320480000      1.3687260000      0.7676820000
C                 -3.7724180000      0.5712940000      0.8159800000
C                 -3.6936850000     -0.7839130000      0.4927920000
C                 -2.4756790000     -1.3479900000      0.1327850000
C                 -1.3142610000     -0.5671870000      0.0814990000
H                  2.3507770000     -2.4023530000     -0.0846990000
H                  4.5356810000     -1.4051700000      0.5723380000
H                  4.6690330000      1.0053050000      1.1515470000
H                  2.6256720000      2.4203000000      1.0406710000
H                 -2.6748640000      2.4221870000      1.0157420000
H                 -4.7201910000      1.0086550000      1.1073770000
H                 -4.5831210000     -1.4019140000      0.5294300000
H                 -2.3928480000     -2.4006620000     -0.1070220000
O                 -0.0255480000      2.8902340000      1.2653860000
$end
$rem
   MAX_SCF_CYCLES=200
   BASIS  =  6-311++G(d,p)
   GUI  =  2
   JOB_TYPE  =  SP
   METHOD  =  B3LYP
   SOLVENT_METHOD = COSMO
$end
$solvent
   dielectric 37.219
   opticaldielectric 1.43
$end





