%chk=187.chk
%nproc=8
%mem=30GB
#P UB3LYP/6-311++G(d,p) nosym opt freq SCRF=(PCM,Solvent=n,n-DiMethylFormamide)

Oxidized

0 1
O                 -2.2907030000     -2.6673530000     -0.4306210000
C                 -2.3536740000     -1.3350140000     -0.2024930000
C                 -3.5969180000     -0.7012190000     -0.0806290000
C                 -3.6836890000      0.6629790000      0.1532190000
C                 -2.5257420000      1.4241690000      0.2704640000
C                 -1.2813190000      0.8113630000      0.1521870000
C                 -0.0721210000      1.6853390000      0.2882060000
O                 -0.1902870000      2.8823960000      0.4937890000
C                  1.2644670000      1.0472030000      0.1649890000
C                  2.3990470000      1.8396440000      0.2882980000
C                  3.6638060000      1.2560590000      0.1751880000
C                  3.7979370000     -0.1018270000     -0.0581870000
C                  2.6616210000     -0.9171610000     -0.1854240000
O                  2.8553520000     -2.2216590000     -0.4103660000
C                  1.3700300000     -0.3416350000     -0.0733460000
C                  0.1791560000     -1.1996270000     -0.2071610000
O                  0.3130280000     -2.4121900000     -0.4159650000
C                 -1.1630730000     -0.5782350000     -0.0863570000
H                 -3.1859190000     -3.0219800000     -0.4813140000
H                 -4.5004160000     -1.2973940000     -0.1724970000
H                 -4.6572580000      1.1307800000      0.2437690000
H                 -2.5622560000      2.4898280000      0.4527930000
H                  2.2786330000      2.8993250000      0.4706040000
H                  4.5513480000      1.8713790000      0.2708790000
H                  4.7709540000     -0.5693560000     -0.1483820000
H                  1.9579970000     -2.6358150000     -0.4716420000


