%chk=326.chk
%nproc=8
%mem=30GB
#P UB3LYP/6-311++G(d,p) nosym opt freq

Oxidized

-1 1
C         -1.87499        2.84087       -0.80908
C         -2.94464        1.99608       -0.51296
C         -2.70635        0.69337       -0.07865
C         -0.55135        2.38640       -0.67236
C         -0.30054        1.06221       -0.23124
C         -1.39746        0.22697        0.06224
C          0.58757        3.27971       -0.98535
C          1.95693        2.76176       -0.82768
C          2.15525        1.37554       -0.36552
C          1.11146        0.57112       -0.08363
O          0.40394        4.42645       -1.36766
O          2.92197        3.46814       -1.07567
H         -2.08248        3.84926       -1.14487
H         -3.96106        2.35240       -0.62043
H         -3.53935        0.04109        0.15019
H         -1.25722       -0.78867        0.40154
H          3.17143        1.00903       -0.25477
S          1.46543       -1.11048        0.47532
O          2.95660       -1.47006        0.56348
O          0.89202       -2.22689       -0.41017
O          0.94219       -1.45570        1.87754





