%chk=114-rad.chk
%nproc=8
%mem=30GB
#P UB3LYP/6-311++G(d,p) nosym  opt freq

Radical

-1 2
C         -3.01128       -3.20017       -0.63863
C         -2.01928       -2.10748       -0.91235
C         -2.45172       -0.83558       -0.93874
C         -3.85827       -0.45827       -0.72663
C         -4.82485       -1.54081       -0.49265
C         -4.42762       -2.81353       -0.45412
O         -2.71277       -4.38572       -0.54867
O         -4.21286        0.71254       -0.74688
C         -0.63962       -2.43652       -1.12828
C         -0.08698       -3.37045       -2.06014
C          0.41388       -1.84319       -0.46120
C          1.30220       -3.31226       -1.92092
N          1.57597       -2.39083       -0.93665
C         -0.62247       -4.25303       -3.02296
C          0.23755       -5.04003       -3.79792
C          1.61693       -4.95798       -3.63149
C          2.17650       -4.09189       -2.68853
H         -1.78011       -0.00606       -1.13287
H         -5.85893       -1.25090       -0.35185
H         -5.12335       -3.62546       -0.27670
H          0.44312       -1.09059        0.31579
H          2.50608       -2.15245       -0.62115
H         -1.69668       -4.33804       -3.15761
H         -0.17964       -5.72525       -4.53158
H          2.26891       -5.57961       -4.24080
H          3.25233       -4.03256       -2.56022








