$molecule
0 1
C                 -0.0647740000      0.9985960000     -0.4082430000
C                 -1.0033830000      0.1387190000     -1.1676480000
C                 -1.1592920000     -1.1544600000     -0.8660130000
C                 -0.4130920000     -1.7973460000      0.2439000000
C                  0.5047470000     -0.9083800000      1.0362140000
C                  0.6566750000      0.3957150000      0.7504980000
O                  0.1250780000      2.1609110000     -0.7227950000
O                 -0.5422360000     -2.9770240000      0.4918900000
C                  1.5174950000      1.3450870000      1.5763260000
C                  2.9061210000      1.6154200000      1.0651810000
O                  1.0490080000      1.8380760000      2.5721850000
H                  2.8409930000      2.0762040000      0.0747680000
H                  3.4567470000      0.6756490000      0.9575350000
H                  3.4302200000      2.2808510000      1.7504460000
H                 -1.8299090000     -1.8089210000     -1.4110560000
Cl                 1.3573140000     -1.6742570000      2.3387280000
H                 -1.5352840000      0.6217810000     -1.9795180000
$end
$rem
   MAX_SCF_CYCLES=200
   BASIS  =  6-311++G(d,p)
   GUI  =  2
   JOB_TYPE  =  SP
   METHOD  =  B3LYP
   SOLVENT_METHOD = PCM
$end
$pcm
   theory = CPCM
$end
$solvent
   dielectric 37.219
   opticaldielectric 1.43
$end





