$molecule
0 1
C                  4.2739220000     -0.0121140000     -0.1603950000
S                  3.0368350000     -1.3405030000     -0.3046120000
C                  1.5329830000     -0.4541930000     -0.1262220000
C                  1.3938550000      0.8782950000      0.0675020000
C                  0.0860020000      1.5324470000      0.2058110000
O                  0.0071690000      2.7411870000      0.3799470000
C                 -1.1330370000      0.6725140000      0.1261790000
C                 -2.3984990000      1.2470140000      0.2512260000
C                 -3.5357800000      0.4482340000      0.1771870000
C                 -3.4156230000     -0.9291500000     -0.0221830000
C                 -2.1577640000     -1.5091770000     -0.1476870000
C                 -1.0118500000     -0.7121700000     -0.0742050000
C                  0.3264550000     -1.3493350000     -0.2106570000
O                  0.4611330000     -2.5466130000     -0.3843450000
H                  4.1611090000      0.7240050000     -0.9573270000
H                  5.2407680000     -0.5044650000     -0.2648130000
H                  4.2245580000      0.4725690000      0.8154880000
H                  2.2397380000      1.5504950000      0.1332400000
H                 -2.4684160000      2.3168170000      0.4052380000
H                 -4.5177710000      0.8971080000      0.2746180000
H                 -4.3036050000     -1.5481880000     -0.0793960000
H                 -2.0421810000     -2.5747790000     -0.3027340000
$end

$rem
   BASIS  =  6-311++G(d,p)
   GUI  =  2
   JOB_TYPE  =  SP
   METHOD  =  B3LYP
   SCF_CONVERGENCE  = 8
   SOLVENT_METHOD = sm12
$end

$smx
   solvent dimethylformamide
   charges CM5
$end





