$molecule
-2 1
C                 -4.3777060000     -0.4541030000     -0.0669050000
C                 -2.8933770000     -0.7010510000     -0.0796060000
C                 -2.3864280000     -1.9992180000     -0.3302720000
C                 -1.0365490000     -2.2461390000     -0.3245450000
Cl                -0.6230090000     -3.9602280000     -0.6918430000
C                 -0.0503350000     -1.2416320000     -0.0847340000
C                  1.3754960000     -1.5325540000     -0.0189960000
O                  1.8708890000     -2.7056130000     -0.0605480000
C                  2.2404820000     -0.3699210000      0.1022700000
C                  3.6432250000     -0.5633560000      0.1185540000
C                  4.5300060000      0.4892190000      0.2270630000
C                  4.0289680000      1.8166590000      0.3333930000
C                  2.6682560000      2.0364280000      0.3226010000
C                  1.7342500000      0.9708120000      0.2076580000
C                  0.3265890000      1.2595390000      0.2135080000
O                 -0.0783530000      2.4998520000      0.3181190000
C                 -0.5635440000      0.1292160000      0.0917500000
C                 -1.9965960000      0.3441320000      0.1183290000
N                 -2.4915550000      1.6242980000      0.3850500000
H                 -4.7119200000      0.0008490000      0.8745230000
H                 -4.7137500000      0.2306950000     -0.8715470000
H                 -4.9303650000     -1.3887330000     -0.2073770000
H                 -3.0758520000     -2.8164730000     -0.5139350000
H                  3.9867570000     -1.5898230000      0.0385160000
H                  5.6032430000      0.3071040000      0.2318880000
H                  4.7185480000      2.6545670000      0.4240080000
H                  2.2542340000      3.0358610000      0.4042380000
H                 -1.7096140000      2.3114580000      0.3335360000
H                 -3.3419900000      1.8581550000     -0.1116310000
$end
$rem
   MAX_SCF_CYCLES=200
   BASIS  =  6-311++G(d,p)
   GUI  =  2
   JOB_TYPE  =  SP
   METHOD  =  B3LYP
   SOLVENT_METHOD = PCM
$end
$pcm
   theory = CPCM
$end
$solvent
   dielectric 37.219
   opticaldielectric 1.43
$end





