$molecule
-2 1
C                 -1.2386430000      2.8664750000     -0.0378440000
C                 -2.5353870000      2.3950280000      0.0443580000
C                 -2.7756720000      0.9982700000      0.1089520000
C                 -0.1219960000      1.9956860000     -0.0623790000
C                 -0.3692330000      0.5755450000      0.0039360000
C                 -1.7032540000      0.1233200000      0.0872470000
C                  1.2167830000      2.5690810000     -0.1407540000
C                  2.2591790000      1.5792930000     -0.1550300000
C                  2.0256150000      0.2019570000     -0.0947060000
C                  0.7282490000     -0.3873770000     -0.0146930000
O                  1.4290850000      3.8289220000     -0.1923110000
O                  0.5379170000     -1.6546920000      0.0380420000
H                 -1.0251830000      3.9297420000     -0.0880440000
H                 -1.8484570000     -0.9519080000      0.1347200000
O                  3.5493600000      2.0998610000     -0.2540110000
C                  4.6276780000      1.2712140000      0.1221230000
C                  5.8549920000      2.1204740000      0.2913270000
C                  7.0826970000      1.7695980000     -0.0902280000
H                 -3.3706700000      3.0932660000      0.0588880000
H                 -3.7941820000      0.6199320000      0.1739930000
H                  2.8533450000     -0.4992190000     -0.1224450000
H                  4.8119730000      0.4752300000     -0.6131430000
H                  4.3973440000      0.7755850000      1.0806460000
H                  5.6829760000      3.0726280000      0.7883600000
H                  7.2690480000      0.8302840000     -0.6067210000
H                  7.9525490000      2.3935130000      0.0908240000
$end
$rem
   MAX_SCF_CYCLES=200
   BASIS  =  6-311++G(d,p)
   GUI  =  2
   JOB_TYPE  =  SP
   METHOD  =  B3LYP
   SOLVENT_METHOD = PCM
$end
$pcm
   theory = CPCM
$end
$solvent
   dielectric 37.219
   opticaldielectric 1.43
$end






