$molecule
-1 2
N                 -4.7144670000      0.3826640000      0.3399510000
C                 -3.7380330000     -0.1657990000      0.6517600000
C                 -2.5440450000     -0.8227960000      1.0218560000
C                 -2.6658100000     -1.9054550000      1.9202850000
N                 -2.7538970000     -2.7983010000      2.6595550000
C                 -1.2736570000     -0.4118420000      0.5116890000
C                 -1.1504710000      0.6799800000     -0.3939260000
C                  0.0696780000      1.0745770000     -0.8840660000
C                  1.2736630000      0.4119470000     -0.5115790000
C                  1.1504980000     -0.6798260000      0.3941220000
C                 -0.0696480000     -1.0743950000      0.8843000000
C                  2.5440060000      0.8227040000     -1.0219560000
C                  3.7379370000      0.1654310000     -0.6522270000
N                  4.7143520000     -0.3832230000     -0.3406840000
C                  2.6658550000      1.9054790000     -1.9202560000
N                  2.7539920000      2.7983460000     -2.6594920000
H                 -2.0448220000      1.2100460000     -0.7014100000
H                  0.1222940000      1.9109900000     -1.5718340000
H                  2.0448500000     -1.2098630000      0.7016750000
H                 -0.1222760000     -1.9106660000      1.5722360000
$end
$rem
   MAX_SCF_CYCLES=200
   BASIS  =  6-311++G(d,p)
   GUI  =  2
   JOB_TYPE  =  SP
   METHOD  =  B3LYP
   SOLVENT_METHOD = PCM
$end
$pcm
   theory = CPCM
$end
$solvent
   dielectric 37.219
   opticaldielectric 1.43
$end






