%chk=040-PCM.chk
%nproc=8
%mem=30GB
#P UB3LYP/6-311++G(d,p) SCRF=(PCM,Solvent=n,n-DiMethylFormamide)

Quinone PCM in DMF 

0 1
C                  0.6534080000      1.4177030000      0.4012650000
C                 -0.5233380000      0.6029540000      0.0390780000
C                 -0.4181840000     -0.6612420000     -0.3974290000
C                  0.9443000000     -1.2735740000     -0.5195150000
C                  2.1481280000     -0.4645060000     -0.1531080000
C                  2.0149480000      0.8109120000      0.2783680000
C                  3.1878940000      1.6711150000      0.6538330000
C                  3.4867950000     -1.1342140000     -0.2959570000
O                  0.5062600000      2.5663840000      0.7954280000
O                  1.0610790000     -2.4242910000     -0.9138830000
C                 -1.5877910000     -1.5427660000     -0.7701980000
C                 -2.9069080000     -0.8322430000     -0.8881250000
C                 -3.9827160000     -0.9544840000     -0.0996560000
C                 -4.0629390000     -1.8415100000      1.1166520000
C                 -5.2445630000     -0.1800880000     -0.3915580000
H                 -1.4842380000      1.0918910000      0.1539010000
H                  3.8839960000      1.7727010000     -0.1848000000
H                  3.7497970000      1.2271700000      1.4821550000
H                  2.8518860000      2.6624010000      0.9532010000
H                  3.3664340000     -2.1661370000     -0.6204360000
H                  4.0329770000     -1.1236750000      0.6523710000
H                  4.1094440000     -0.6095210000     -1.0281120000
H                 -1.6296830000     -2.3673520000     -0.0523240000
H                 -1.3410180000     -2.0265700000     -1.7226630000
H                 -2.9798900000     -0.1476970000     -1.7317830000
H                 -3.1374810000     -2.3773070000      1.3260660000
H                 -4.8631720000     -2.5813800000      0.9995750000
H                 -4.3149980000     -1.2484350000      2.0031260000
H                 -5.1406510000      0.4490000000     -1.2776090000
H                 -5.5149680000      0.4613620000      0.4552190000
H                 -6.0902620000     -0.8590660000     -0.5517360000





