$molecule
-1 2
C                 -2.4148510000      1.9082100000     -0.0230170000
C                 -1.2693790000      0.9257600000     -0.0049730000
C                 -1.5026880000     -0.4378880000      0.1365790000
C                 -2.9075580000     -0.9713080000      0.2757390000
C                 -0.4288740000     -1.4096950000      0.1583020000
O                 -0.6351190000     -2.6495640000      0.2866060000
C                  0.9368460000     -0.8812520000      0.0220760000
C                  2.0338300000     -1.7659010000      0.0343440000
C                  3.3297170000     -1.2977890000     -0.0918760000
C                  3.5660940000      0.0839430000     -0.2355160000
C                  2.5014800000      0.9675580000     -0.2497050000
C                  1.1747700000      0.5095400000     -0.1223820000
C                  0.0644350000      1.4737990000     -0.1410320000
O                  0.2820190000      2.7116750000     -0.2699160000
H                 -3.1137150000      1.7025470000     -0.8438920000
H                 -3.0001590000      1.8669010000      0.9045010000
H                 -2.0216320000      2.9179030000     -0.1433530000
H                 -2.8728310000     -2.0564120000      0.3753240000
H                 -3.5265430000     -0.7175700000     -0.5943590000
H                 -3.4157180000     -0.5534020000      1.1541990000
H                  1.8207130000     -2.8229310000      0.1462780000
H                  4.1643040000     -1.9932040000     -0.0804180000
H                  4.5828820000      0.4534750000     -0.3348210000
H                  2.6519770000      2.0356070000     -0.3586890000
$end
$rem
   MAX_SCF_CYCLES=200
   BASIS  =  6-311++G(d,p)
   GUI  =  2
   JOB_TYPE  =  SP
   METHOD  =  B3LYP
   SOLVENT_METHOD = COSMO
$end
$solvent
   dielectric 37.219
   opticaldielectric 1.43
$end





