%chk=065-an.chk
%nproc=8
%mem=30GB
#P UB3LYP/6-311++G(d,p) nosym opt freq

Reduced

-2 1
C                 -1.3533490000     -2.0397110000      1.1752130000
C                 -1.4259130000     -1.9959340000     -0.2556530000
C                 -0.7918290000     -1.0234340000     -1.0144210000
C                 -0.0024620000      0.0316930000     -0.4333650000
C                  0.0718810000     -0.0129250000      1.0064820000
C                 -0.5613830000     -0.9842090000      1.7674230000
O                 -1.9364010000     -2.9349380000      1.8988360000
O                  0.5869820000      0.9317310000     -1.1367240000
C                 -0.5005670000     -1.0492830000      3.2681250000
O                  0.2812220000      0.0334720000      3.8225210000
C                  0.4120530000      0.1221120000      5.1614010000
C                 -0.1677270000     -0.7588490000      6.0891320000
C                  1.1954120000      1.1890640000      5.6400410000
C                  1.3904760000      1.3683050000      7.0031560000
C                  0.0437530000     -0.5658530000      7.4573690000
C                  0.8171050000      0.4906270000      7.9286690000
H                 -2.0160200000     -2.7753760000     -0.7367720000
H                 -0.8758110000     -1.0302650000     -2.1006370000
H                  0.6587630000      0.7602790000      1.4927590000
H                 -0.0668600000     -2.0046120000      3.5913120000
H                 -1.5151560000     -1.0113510000      3.6874730000
H                 -0.7780020000     -1.5843200000      5.7489980000
H                  1.6365470000      1.8618410000      4.9129800000
H                  1.9963160000      2.2009830000      7.3532980000
H                 -0.4108330000     -1.2564280000      8.1636970000
H                  0.9717320000      0.6326720000      8.9949570000


