$molecule
0 1
C                  5.7445380000     -5.2911960000      1.3745770000
C                  6.6991810000     -5.1852120000      0.3727110000
C                  6.5885230000     -4.2181620000     -0.6397380000
C                  4.6456770000     -4.4276110000      1.3919060000
C                  4.5210730000     -3.4549280000      0.3857960000
C                  5.4891410000     -3.3594910000     -0.6162070000
C                  3.6236370000     -4.5446350000      2.4683260000
C                  2.4824190000     -3.5955450000      2.4255910000
C                  2.3609830000     -2.6669220000      1.4673230000
C                  3.3583610000     -2.5188500000      0.3782000000
O                  3.7004180000     -5.3777590000      3.3574530000
O                  3.2151940000     -1.6614070000     -0.4783340000
H                  5.8313280000     -6.0376540000      2.1548370000
H                  7.5477480000     -5.8620450000      0.3707460000
H                  1.7541320000     -3.7046870000      3.2220630000
H                  1.5278570000     -1.9730190000      1.4349360000
C                  7.6360170000     -4.1182990000     -1.7197750000
H                  5.3643570000     -2.5986100000     -1.3780870000
H                  7.7132390000     -5.0558350000     -2.2786810000
H                  8.6221950000     -3.9148210000     -1.2915310000
H                  7.4043010000     -3.3212160000     -2.4276630000
$end

$rem
   BASIS  =  6-311++G(d,p)
   GUI  =  2
   JOB_TYPE  =  SP
   METHOD  =  B3LYP
   SCF_CONVERGENCE  = 8
   SOLVENT_METHOD = sm12
$end

$smx
   solvent dimethylformamide
   charges CM5
$end





