%chk=084-PCM.chk
%nproc=8
%mem=30GB
#P UB3LYP/6-311++G(d,p) SCRF=(PCM,Solvent=n,n-DiMethylFormamide)

Quinone PCM in DMF 

0 1
C                  2.9641980000     -0.5844280000      0.4891650000
O                  1.7803700000      0.2326730000      0.5833350000
C                  0.5689100000     -0.2804640000      0.3042630000
C                 -0.3489360000      0.5174830000     -0.3242660000
O                  0.0427320000      1.7307000000     -0.7526280000
C                 -0.8528790000      2.8582860000     -0.6864950000
C                 -1.6994570000     -0.0089150000     -0.6593310000
O                 -2.4864240000      0.6268260000     -1.3446560000
C                 -2.0624720000     -1.3660190000     -0.1735580000
C                 -1.1813510000     -2.1280110000      0.4761270000
C                  0.1798090000     -1.6275110000      0.8016980000
O                  0.9312630000     -2.3009400000      1.4908800000
H                  2.9223380000     -1.2230520000     -0.3965350000
H                  3.7853870000      0.1237170000      0.3875600000
H                  3.0904610000     -1.1964310000      1.3796050000
H                 -0.2045710000      3.7326660000     -0.7223560000
H                 -1.4081840000      2.8548970000      0.2545930000
H                 -1.5467820000      2.8579460000     -1.5242880000
H                 -3.0684630000     -1.6914860000     -0.4122230000
H                 -1.4059510000     -3.1279390000      0.8291100000





