%chk=320-an.chk
%nproc=8
%mem=30GB
#P UB3LYP/6-311++G(d,p) nosym opt freq

Reduced

-2 1
C         -0.48818        3.80948        0.53370
C          0.47546        2.88238        0.50875
C          0.37993        1.62717       -0.22570
C         -0.73191        1.33731       -0.92403
C          1.48841        0.71314       -0.19674
C          1.47696       -0.67873        0.13508
C          2.78826        1.05682       -0.50569
C          2.78933       -1.13899        0.00309
C          0.48515       -1.59667        0.54380
C          0.83533       -2.92915        0.79150
C          2.15189       -3.35621        0.64283
C          3.15569       -2.46828        0.24695
N          3.56096       -0.06830       -0.38722
H         -0.84825        0.42301       -1.49463
H          3.23152        1.99491       -0.81297
H         -0.54588       -1.28025        0.67168
H          0.07016       -3.63571        1.10431
H          2.40443       -4.39579        0.83987
H          4.18134       -2.80510        0.13568
H          4.55568       -0.11463       -0.56105
C         -1.74260        3.58825       -0.21161
C         -1.87652        2.26980       -0.96866
O         -2.62869        4.42920       -0.21380
O         -2.89067        1.98807       -1.59035
H         -0.40109        4.73603        1.08668
H          1.38822        3.05894        1.07523







