$molecule
-2 1
C                  5.6703580000     -5.1029350000      1.2839460000
C                  6.6812700000     -5.0269060000      0.3574180000
C                  6.5948040000     -4.0578200000     -0.7073420000
C                  4.5233130000     -4.2643720000      1.2506150000
C                  4.4357390000     -3.2817840000      0.1710800000
C                  5.4729170000     -3.2178080000     -0.7629880000
C                  3.4997550000     -4.4005030000      2.2575340000
C                  2.4151140000     -3.4839870000      2.0835400000
C                  2.3167570000     -2.5397850000      1.0580820000
C                  3.2988120000     -2.3653270000      0.0380070000
O                  3.5512470000     -5.2593650000      3.2245770000
O                  3.2039030000     -1.4948500000     -0.9016080000
C                  7.6250060000     -3.9642170000     -1.6705670000
N                  8.4937210000     -3.9120460000     -2.4513780000
H                  5.7109810000     -5.8238530000      2.0955130000
H                  7.5451920000     -5.6834340000      0.4116600000
H                  5.3763900000     -2.4773780000     -1.5512420000
H                  1.6154900000     -3.5484980000      2.8231260000
H                  1.4469610000     -1.8840230000      1.0113160000
$end

$rem
   BASIS  =  6-311++G(d,p)
   GUI  =  2
   JOB_TYPE  =  SP
   METHOD  =  B3LYP
   SCF_CONVERGENCE  = 8
   SOLVENT_METHOD = sm12
$end

$smx
   solvent dimethylformamide
   charges CM5
$end





