%chk=076-an.chk
%nproc=8
%mem=30GB
#P UB3LYP/6-311++G(d,p) nosym opt freq SCRF=(PCM,Solvent=n,n-DiMethylFormamide)

Reduced

-2 1
C                  0.2351460000      1.6921070000     -1.6391620000
C                 -1.1987230000      1.8038750000     -1.4530120000
C                 -2.0711420000      0.7667580000     -1.6706050000
C                 -1.6562370000     -0.5613280000     -2.0934550000
C                 -0.2559710000     -0.6927100000     -2.2367370000
C                  0.6899000000      0.3458910000     -1.9785570000
O                  0.9799600000      2.7234470000     -1.5545200000
O                 -2.5245710000     -1.4996990000     -2.2864240000
C                  3.1911950000      0.8038570000     -1.4460380000
C                  4.4631160000      0.8558630000     -2.0352170000
C                  3.0464440000      1.3312460000     -0.1548280000
C                  4.1323730000      1.8789360000      0.5220770000
C                  5.5492270000      1.4284750000     -1.3718580000
C                  5.3936360000      1.9393400000     -0.0834940000
H                 -1.5617310000      2.7898540000     -1.1643640000
H                 -3.1432480000      0.9134180000     -1.5300700000
H                  0.1357980000     -1.6615700000     -2.5295540000
H                  4.5817960000      0.4190190000     -3.0203490000
H                  2.0685590000      1.3084530000      0.3082930000
H                  3.9955830000      2.2729580000      1.5259900000
H                  6.5244350000      1.4634010000     -1.8544320000
H                  6.2420870000      2.3683800000      0.4456660000
C                  2.0969640000      0.0266190000     -2.1539330000
O                  2.5009210000     -0.9516900000     -2.8252610000


