%chk=047-rad.chk
%nproc=8
%mem=30GB
#P UB3LYP/6-311++G(d,p) nosym  opt freq

Radical

-1 2
C                  2.6862460000      1.3899630000      0.9129910000
C                  2.3482390000      0.5291090000     -0.3215880000
C                  3.5920200000     -0.2231270000     -0.8132730000
C                  1.1463500000     -0.3604300000     -0.0432140000
C                  1.2590490000     -1.6813860000      0.3102820000
C                  0.1182910000     -2.5222580000      0.6021550000
O                  0.2403370000     -3.7390590000      0.9292960000
C                 -1.1696790000     -1.8752970000      0.4919050000
C                 -1.3298900000     -0.5572120000      0.1392750000
C                 -2.7299240000      0.0347290000      0.0452760000
C                 -2.9599150000      1.1679220000      1.0643670000
C                 -3.0759490000      0.5018080000     -1.3821920000
C                 -0.1666510000      0.2765320000     -0.1453930000
O                 -0.2771430000      1.4996740000     -0.4696480000
H                  3.5040700000      2.0882270000      0.6936300000
H                  2.9946490000      0.7567530000      1.7524810000
H                  1.8131710000      1.9699600000      1.2173860000
H                  2.0312890000      1.2242140000     -1.1065200000
H                  4.3799230000      0.4870150000     -1.0897890000
H                  3.3656010000     -0.8391050000     -1.6884290000
H                  4.0030940000     -0.8821940000     -0.0413450000
H                  2.2285130000     -2.1650660000      0.3859380000
H                 -2.0374880000     -2.4960070000      0.7053120000
H                 -3.4229600000     -0.7780180000      0.2995150000
H                 -2.2877260000      2.0019980000      0.8562090000
H                 -3.9962150000      1.5259850000      1.0166150000
H                 -2.7694870000      0.8167000000      2.0833560000
H                 -4.1116170000      0.8615770000     -1.4307360000
H                 -2.9695310000     -0.3216700000     -2.0952920000
H                 -2.4066660000      1.3086630000     -1.6854280000


