$molecule
0 1
C                 -0.6497340000      2.8884150000      0.4173750000
C                 -1.6499950000      2.5011570000     -0.4684210000
C                 -1.4200840000      1.4589580000     -1.3685570000
C                  0.5846600000      2.2339640000      0.3985990000
C                  0.8188070000      1.1857760000     -0.5066890000
C                 -0.1930020000      0.7991340000     -1.3841850000
C                  1.6516490000      2.6388410000      1.3304230000
C                  2.9554110000      1.9249450000      1.2699660000
C                  3.2115130000      0.9305470000      0.3729210000
C                  2.1306460000      0.4511930000     -0.5350440000
O                  1.5381820000      3.5374620000      2.1577010000
O                  2.2774160000     -0.5191570000     -1.2526900000
O                  3.8717660000      2.3728370000      2.1302370000
H                 -0.8060280000      3.6904140000      1.1282750000
H                 -2.6075120000      3.0087990000     -0.4585090000
H                 -2.1999820000      1.1596210000     -2.0594540000
H                 -0.0002970000     -0.0151440000     -2.0714640000
H                  3.4332140000      3.0806940000      2.6415580000
N                  4.4512430000      0.2792710000      0.4327200000
N                  4.9666640000      0.0022230000     -0.6754030000
C                  6.1806690000     -0.7282240000     -0.6071270000
C                  6.7946810000     -1.1455630000      0.5839630000
C                  6.7629360000     -1.0285160000     -1.8428210000
C                  7.9556030000     -1.7443510000     -1.8945970000
C                  8.5666890000     -2.1587980000     -0.7127230000
C                  7.9840080000     -1.8574050000      0.5234330000
H                  6.3305610000     -0.9017720000      1.5307760000
H                  6.2611180000     -0.6953260000     -2.7433770000
H                  8.4059670000     -1.9788420000     -2.8521350000
H                  9.4958290000     -2.7164920000     -0.7495660000
H                  8.4650040000     -2.1817300000      1.4394660000
$end
$rem
   MAX_SCF_CYCLES=200
   BASIS  =  6-311++G(d,p)
   GUI  =  2
   JOB_TYPE  =  SP
   METHOD  =  B3LYP
   SOLVENT_METHOD = PCM
$end
$pcm
   theory = CPCM
$end
$solvent
   dielectric 37.219
   opticaldielectric 1.43
$end






