%chk=206.chk
%nproc=8
%mem=30GB
#P UB3LYP/6-311++G(d,p) nosym opt freq

Oxidized

0 1
C                 -4.5594830000      0.8903960000      0.3458290000
C                 -3.2154200000      0.2413740000      0.1780170000
C                 -3.0766500000     -1.1083660000     -0.0574430000
C                 -1.8137880000     -1.7181100000     -0.2149850000
O                 -1.7958750000     -3.0375360000     -0.4402300000
C                 -0.6502750000     -0.9346430000     -0.1313630000
C                  0.6563860000     -1.5468960000     -0.2912180000
O                  0.7597570000     -2.7894180000     -0.5065720000
C                  1.8495850000     -0.7156050000     -0.2005460000
C                  3.1221070000     -1.2934900000     -0.3528290000
O                  3.3170980000     -2.5980750000     -0.5829450000
C                  4.2695510000     -0.4742950000     -0.2622960000
C                  4.1576620000      0.8734200000     -0.0285170000
C                  2.8919290000      1.4804130000      0.1284490000
O                  2.8698110000      2.8001100000      0.3537480000
C                  1.7322390000      0.6884950000      0.0431850000
C                  0.4202810000      1.2998820000      0.2031100000
O                  0.3190450000      2.5425260000      0.4182770000
C                 -0.7716700000      0.4687530000      0.1125130000
C                 -2.0428010000      1.0459460000      0.2648290000
O                 -2.2266600000      2.3529950000      0.4949730000
H                 -4.7086300000      1.6724230000     -0.4038870000
H                 -4.6349010000      1.3789570000      1.3212810000
H                 -5.3612660000      0.1570020000      0.2553340000
H                 -3.9503770000     -1.7460340000     -0.1286670000
H                 -0.8491190000     -3.3046970000     -0.5261970000
H                  2.4265950000     -3.0233920000     -0.6176540000
H                  5.2383430000     -0.9437250000     -0.3832180000
H                  5.0348580000      1.5051520000      0.0416100000
H                  1.9229630000      3.0650440000      0.4392700000
H                 -1.3312950000      2.7713920000      0.5281420000


