%chk=058-rad.chk
%nproc=8
%mem=30GB
#P UB3LYP/6-311++G(d,p) nosym  opt freq SCRF=(PCM,Solvent=n,n-DiMethylFormamide)

Radical

-1 2
C                 -0.5090580000      1.1682300000     -0.4054300000
C                 -1.4126200000      0.1260870000     -0.8940140000
C                 -1.2510590000     -1.2089340000     -0.6782690000
C                 -0.1043770000     -1.6896150000      0.0964450000
C                  0.7859380000     -0.6800260000      0.5941340000
C                  0.6243040000      0.6886320000      0.4033750000
O                 -0.7122780000      2.3598420000     -0.7149410000
O                  0.0788010000     -2.9232210000      0.3127260000
C                  1.5825260000      1.6293580000      1.0241180000
C                  2.9496120000      1.0757140000      1.4576440000
O                  1.3532880000      2.8134500000      1.2298480000
H                 -2.2524320000      0.4950190000     -1.4784200000
H                  3.4138780000      0.4634510000      0.6803990000
H                  2.8488770000      0.4514930000      2.3516280000
H                  3.5907180000      1.9243180000      1.6979750000
C                 -2.2094390000     -2.2374300000     -1.2128500000
H                  1.6161480000     -1.0617640000      1.1779840000
H                 -3.0247790000     -1.7663670000     -1.7684830000
H                 -2.6301840000     -2.8355190000     -0.3978430000
H                 -1.6925650000     -2.9459980000     -1.8684660000


