%chk=238-an.chk
%nproc=8
%mem=30GB
#P UB3LYP/6-311++G(d,p) nosym opt freq

Reduced

-2 1
C                  5.6624120000     -5.3556150000      1.3149330000
C                  6.6329730000     -5.2511550000      0.3328430000
C                  6.5667130000     -4.2206360000     -0.6399380000
C                  4.5760400000     -4.4590740000      1.3961290000
C                  4.5080790000     -3.3935320000      0.4266190000
C                  5.5222760000     -3.3123040000     -0.5548590000
C                  3.5692100000     -4.6252250000      2.4492250000
C                  2.5430840000     -3.6408070000      2.4197330000
C                  2.4776120000     -2.6017840000      1.4786030000
C                  3.4274220000     -2.4022040000      0.4381570000
O                  3.6279430000     -5.5760820000      3.3158580000
O                  3.3551180000     -1.4493700000     -0.4251170000
H                  5.7019500000     -6.1420240000      2.0630620000
H                  7.4496700000     -5.9703430000      0.2928390000
H                  1.7698910000     -3.7227610000      3.1841200000
H                  1.6510990000     -1.8918020000      1.5202210000
C                  7.6216480000     -4.1173310000     -1.7229650000
H                  5.4403160000     -2.4900740000     -1.2613560000
H                  8.4885790000     -4.7562720000     -1.5134270000
H                  7.9990720000     -3.0909850000     -1.8353800000
H                  7.2392120000     -4.4185180000     -2.7048490000


