%chk=348-an-PCM.chk
%nproc=8
%mem=30GB
#P UB3LYP/6-311++G(d,p) SCRF=(PCM,Solvent=n,n-DiMethylFormamide)

Reduced 

-2 1
O                  3.9123840000      2.7713940000      0.9778710000
C                  3.0207080000      1.8996060000      1.0370800000
N                  2.9423720000      0.9427960000      1.9948090000
C                  1.9483320000     -0.1214750000      2.1421160000
O                  2.1391740000     -0.8718440000      3.1319720000
C                  0.9437470000     -0.1284940000      1.1505430000
N                 -0.0949270000     -1.0796780000      1.1474890000
C                 -0.9934490000     -0.9815080000      0.1682210000
C                 -2.0939600000     -1.9012320000      0.0665300000
C                 -3.0490500000     -1.8187510000     -0.9515630000
C                 -2.9851840000     -0.8305040000     -1.9342560000
C                 -1.9065440000      0.0970330000     -1.8661170000
C                 -0.9427260000      0.0442530000     -0.8720850000
N                  0.1014270000      0.9876550000     -0.8536270000
C                  0.9648910000      0.8582640000      0.1276530000
N                  2.0045640000      1.8141620000      0.1234800000
H                  3.6635060000      0.9337820000      2.6992690000
H                 -2.1594690000     -2.6771150000      0.8253850000
H                 -3.8605550000     -2.5480710000     -0.9711260000
H                 -3.7264660000     -0.7670800000     -2.7269440000
H                 -1.8111020000      0.8864890000     -2.6105950000
H                  1.9797280000      2.4933180000     -0.6222680000





