%chk=256-rad.chk
%nproc=8
%mem=30GB
#P UB3LYP/6-311++G(d,p) nosym opt freq

Radical

-1 2
C         -1.57125        2.81812        0.02236
C         -2.84413        2.22325        0.01726
C         -2.94838        0.81075        0.00673
C         -0.40523        2.03447        0.01711
C         -0.51007        0.63665        0.00667
C         -1.77904        0.03522        0.00159
C          0.93817        2.66484        0.02241
C          2.17382        1.82168        0.01649
C          2.06835        0.46132        0.00630
C          0.72370       -0.18555        0.00108
O          1.03194        3.88408        0.03162
O          0.64061       -1.40593       -0.00798
C          3.52496        2.50820        0.02198
C          3.27464       -0.45886       -0.00028
H         -1.48877        3.89838        0.03041
C         -4.06234        3.10989        0.02313
C         -4.26994        0.08388        0.00061
H          3.43841        3.61378        0.03022
H          4.09551        2.22723       -0.88833
H          4.09505        2.21364        0.92827
H          4.24977        0.06391        0.00385
H          3.24342       -1.09744       -0.90799
H          3.24299       -1.11096        0.89774
H         -1.86346       -1.04539       -0.00649
H         -3.79030        4.18688        0.03125
H         -4.67153        2.90662        0.92882
H         -4.67046        2.92005       -0.88618
H         -5.14603        0.76044        0.00513
H         -4.33864       -0.56516        0.89903
H         -4.33764       -0.55176       -0.90742








