$molecule
0 1
C                  5.9228460000     -5.2187110000      1.1094300000
C                  6.8204160000     -5.0891700000      0.0553880000
C                  6.6095950000     -4.1072800000     -0.9268200000
C                  4.8151510000     -4.3788580000      1.1958860000
C                  4.6043490000     -3.3970390000      0.2137390000
C                  5.5040530000     -3.2682740000     -0.8416090000
C                  3.8624430000     -4.5329980000      2.3350040000
C                  2.7023980000     -3.6092750000      2.3728330000
C                  2.5012290000     -2.6723800000      1.4356480000
C                  3.4231390000     -2.4869900000      0.2884150000
O                  4.0183350000     -5.3751990000      3.2021330000
O                  3.2132890000     -1.6258380000     -0.5481870000
H                  6.0772810000     -5.9725230000      1.8708220000
H                  5.3334900000     -2.5088060000     -1.5938750000
Cl                 7.7102250000     -3.9133190000     -2.2618360000
Cl                 8.1923330000     -6.1588100000     -0.0156830000
H                  2.0272510000     -3.7435120000      3.2109910000
H                  1.6524240000     -1.9978170000      1.4647700000
$end
$rem
   MAX_SCF_CYCLES=200
   BASIS  =  6-311++G(d,p)
   GUI  =  2
   JOB_TYPE  =  SP
   METHOD  =  B3LYP
   SOLVENT_METHOD = COSMO
$end
$solvent
   dielectric 37.219
   opticaldielectric 1.43
$end





