$molecule
-1 2
C                 -1.2353400000      2.8744710000     -0.0821850000
C                 -2.5335630000      2.3995080000     -0.0970400000
C                 -2.7785500000      1.0117980000     -0.0498620000
C                 -0.1359130000      1.9913970000     -0.0206610000
C                 -0.3853490000      0.5918420000      0.0271910000
C                 -1.7146740000      0.1292160000      0.0113380000
C                  1.2238420000      2.5457340000     -0.0048570000
C                  2.2856740000      1.5558200000      0.0583070000
C                  2.0462750000      0.1966260000      0.1039190000
C                  0.7260140000     -0.3721920000      0.0927030000
O                  1.4494500000      3.7825990000     -0.0402940000
O                  0.5300790000     -1.6156640000      0.1345420000
H                 -1.0204710000      3.9364780000     -0.1173830000
H                 -1.8683370000     -0.9435580000      0.0488750000
O                  3.5472650000      2.1036170000      0.0685430000
C                  4.6539500000      1.2356620000      0.2254420000
C                  5.8903870000      2.0788630000      0.3112520000
C                  7.0251600000      1.8266020000     -0.3363670000
H                 -3.3662660000      3.0956160000     -0.1452920000
H                 -3.7985990000      0.6388130000     -0.0615140000
H                  2.8562040000     -0.5213900000      0.1469570000
H                  4.7267710000      0.5248620000     -0.6086110000
H                  4.5396210000      0.6488940000      1.1503890000
H                  5.8133450000      2.9381850000      0.9729690000
H                  7.1161770000      0.9865070000     -1.0190310000
H                  7.9027570000      2.4514040000     -0.2100210000
$end
$rem
   MAX_SCF_CYCLES=200
   BASIS  =  6-311++G(d,p)
   GUI  =  2
   JOB_TYPE  =  SP
   METHOD  =  B3LYP
   SOLVENT_METHOD = PCM
$end
$pcm
   theory = CPCM
$end
$solvent
   dielectric 37.219
   opticaldielectric 1.43
$end






