$molecule
-2 1
C                  4.8482590000     -2.9113140000     -0.3159710000
C                  5.5815220000     -2.0342200000     -1.0778020000
C                  5.0085270000     -0.8044980000     -1.5201710000
C                  3.4924520000     -2.6320220000      0.0625530000
C                  2.9084850000     -1.3756080000     -0.3898720000
C                  3.7031790000     -0.5092950000     -1.1698830000
C                  2.7415290000     -3.5161890000      0.8351550000
C                  1.4043050000     -3.2004990000      1.1866530000
C                  0.8032080000     -1.9628100000      0.7511460000
C                  1.5442720000     -0.9999010000     -0.0600900000
C                  0.6273210000     -4.1199780000      1.9881340000
C                 -0.6889260000     -3.7647740000      2.3100890000
C                 -0.5342770000     -1.6766030000      1.1188150000
C                 -1.2735510000     -2.5631610000      1.8880260000
O                  3.3102300000     -4.7085010000      1.2591040000
O                  1.0272480000      0.0967430000     -0.4520170000
O                  1.0864800000     -5.2771830000      2.4353780000
H                  5.2823490000     -3.8467230000      0.0212630000
H                  6.6084360000     -2.2797360000     -1.3460290000
H                  5.5925460000     -0.1127390000     -2.1233350000
H                  3.2317330000      0.4164400000     -1.4870640000
H                  2.5841050000     -5.1538210000      1.7838320000
O                 -1.3797830000     -4.6930590000      3.0827460000
H                 -0.9536730000     -0.7383950000      0.7747090000
H                 -2.3012390000     -2.3441480000      2.1711050000
H                 -0.6864980000     -5.3815760000      3.1845950000
$end
$rem
   MAX_SCF_CYCLES=200
   BASIS  =  6-311++G(d,p)
   GUI  =  2
   JOB_TYPE  =  SP
   METHOD  =  B3LYP
   SOLVENT_METHOD = COSMO
$end
$solvent
   dielectric 37.219
   opticaldielectric 1.43
$end





