$molecule
0 1
C                  3.4507230000      5.4901110000     -0.2766330000
C                  2.2402640000      4.6117650000     -0.2056050000
C                  2.2562720000      3.5179100000      0.5874160000
C                  3.4601330000      3.2248750000      1.4266970000
C                  4.6807400000      4.0831090000      1.3300930000
C                  4.6700050000      5.1626560000      0.5185360000
O                  3.4408990000      6.4792340000     -0.9949960000
O                  3.4347780000      2.2757310000      2.1997990000
C                  5.8245630000      6.1051600000      0.3425820000
C                  5.8594900000      3.6765810000      2.1756220000
C                  1.0925900000      5.0522200000     -1.0682600000
C                  1.1195020000      2.5349570000      0.7242630000
C                  0.2963700000      2.7545210000      2.0040070000
C                 -0.9348940000      1.8613330000      2.0617800000
O                 -1.3851240000      1.2513060000      1.1334150000
O                 -1.5550880000      1.8076920000      3.2735500000
H                  6.6847400000      5.8152000000      0.9428130000
H                  5.5305640000      7.1233180000      0.6127870000
H                  6.1240220000      6.1478840000     -0.7084000000
H                  5.6212330000      2.7807110000      2.7457350000
H                  6.1355250000      4.4691920000      2.8768740000
H                  6.7357720000      3.4691300000      1.5549450000
H                  0.8529130000      6.0991270000     -0.8672670000
H                  0.1996540000      4.4498000000     -0.9173070000
H                  1.3721770000      5.0064280000     -2.1251270000
H                  1.5310360000      1.5241610000      0.7534820000
H                  0.4568990000      2.5826460000     -0.1374790000
H                 -0.0540820000      3.7928110000      2.0627400000
H                  0.9222880000      2.5788920000      2.8841110000
H                 -1.0626030000      2.3152690000      3.9301470000
$end
$rem
   MAX_SCF_CYCLES=200
   BASIS  =  6-311++G(d,p)
   GUI  =  2
   JOB_TYPE  =  SP
   METHOD  =  B3LYP
   SOLVENT_METHOD = PCM
$end
$pcm
   theory = CPCM
$end
$solvent
   dielectric 37.219
   opticaldielectric 1.43
$end





