%chk=036-rad.chk
%nproc=8
%mem=30GB
#P UB3LYP/6-311++G(d,p) nosym  opt freq

Radical

-1 2
 C                 -3.19354100    1.77867400    0.56676800
 C                 -3.82248800    1.67104000   -0.77096300
 C                 -3.54605000    0.64511900   -1.57985100
 C                 -2.59440800   -0.41440600   -1.17027700
 C                 -1.93219300   -0.31316700    0.16808200
 C                 -2.22123500    0.72156400    0.99543600
 O                 -3.47569800    2.71673500    1.29652300
 O                 -2.36639200   -1.34877500   -1.92523300
 C                 -1.60498400    0.91464500    2.35222300
 C                 -0.94550400   -1.41328300    0.50254100
 C                  0.49404200   -1.05614300    0.15221900
 C                  0.92235400   -1.01183900   -1.17823000
 C                  1.43006500   -0.77440800    1.15203600
 C                  2.74785200   -0.45288900    0.83484200
 C                  2.24096400   -0.68805900   -1.49062000
 C                  3.17968700   -0.39951300   -0.49493800
 H                 -4.51206300    2.46518700   -1.03457500
 H                 -3.99029200    0.52754300   -2.56196900
 H                 -1.50209100   -0.03133200    2.88686200
 H                 -2.20769900    1.60048700    2.94574700
 H                 -0.60377500    1.34835900    2.25908000
 H                  0.22304000   -1.24443600   -1.97354700
 H                  1.13150500   -0.81790600    2.19461600
 H                  3.44492000   -0.24640900    1.64032500
 H                  2.54747500   -0.66573700   -2.53202500
 C                 -1.03109967   -1.74307638    2.00437645
 H                 -2.05701191   -1.76020678    2.30787377
 H                 -0.58969856   -2.70092111    2.18492709
 H                 -0.50606081   -0.99724327    2.56381113
 C                 -1.35625728   -2.67631400   -0.27696809
 H                 -2.41959938   -2.78911701   -0.23850955
 H                 -1.04404696   -2.58368214   -1.29620509
 H                 -0.89051888   -3.53370302    0.16220365
 H                  4.18978604   -0.15444007   -0.74898364












