$molecule
0 1
C                  4.9040900000     -1.2250550000     -0.0226950000
C                  3.5337900000     -1.0406420000     -0.6000080000
O                  3.2534540000     -0.6938800000     -1.7112030000
O                  2.5746560000     -1.3467540000      0.3505380000
C                  1.2523370000     -1.0581010000      0.0758220000
C                  0.4226530000     -2.1454920000     -0.1779180000
C                 -0.9295120000     -1.9515980000     -0.3929180000
C                 -1.4657690000     -0.6686250000     -0.3538240000
O                 -2.8098370000     -0.5563930000     -0.6511240000
C                 -3.6958050000     -0.2686000000      0.3730960000
C                 -5.0525300000      0.0255550000     -0.1906900000
O                 -3.3741290000     -0.2779200000      1.5264050000
C                 -0.6524990000      0.4461160000     -0.0993340000
C                 -1.2217680000      1.8309910000     -0.0759580000
O                 -2.4024060000      2.0749570000     -0.2691220000
C                 -0.2966400000      2.9507160000      0.2014450000
C                  1.0031770000      2.7600100000      0.4426410000
C                  1.6237950000      1.4181430000      0.4146910000
O                  2.8221950000      1.3176620000      0.6256920000
C                  0.7383820000      0.2467720000      0.1209590000
H                  5.6408110000     -1.2157570000     -0.8232470000
H                  5.0939720000     -0.3954520000      0.6628680000
H                  4.9643710000     -2.1534230000      0.5471700000
H                  0.8580420000     -3.1366170000     -0.2005220000
H                 -1.5906060000     -2.7847480000     -0.5959380000
H                 -5.3156370000     -0.6942480000     -0.9671510000
H                 -5.0181960000      1.0175700000     -0.6478940000
H                 -5.7893990000      0.0155960000      0.6097170000
H                 -0.7548880000      3.9334170000      0.2081750000
H                  1.6838970000      3.5758000000      0.6590690000
$end
$rem
   MAX_SCF_CYCLES=200
   BASIS  =  6-311++G(d,p)
   GUI  =  2
   JOB_TYPE  =  SP
   METHOD  =  B3LYP
   SOLVENT_METHOD = COSMO
$end
$solvent
   dielectric 37.219
   opticaldielectric 1.43
$end





